1319
Conf 1. Box X: 20.611 0.000 0.000 Y: 0.000 25.005 0.000 Z: 0.000 0.000 25.692
N          10.40776250    10.68887420    10.60822110
H          10.25778100    11.66240600    10.87689300
C          11.11009500    10.22387790     9.52017500
C          10.68095110     8.80984400     9.31016920
C           9.72170730     8.54846000    10.20037460
C           9.46033480     9.72830680    11.04121690
C          11.43369290     7.79775710     8.49705890
H          12.38112450     7.47541900     8.96319770
H          11.66328430     8.19387530     7.49247220
H          10.88521960     6.84372620     8.40864280
O          11.83874700    10.84558300     8.75726700
C           9.22987840     7.22422700    10.49159050
H           9.19844720     6.49628450     9.67151640
C           8.77325440     6.81703380    11.64508720
H           8.44878670     5.77276900    11.67777920
H           8.94411180     7.34704490    12.58675100
C           8.33341880     9.94535920    11.92685220
H           7.62126830     9.11116500    11.90754600
N           8.72157380    12.09982200    12.88311290
H           9.71543980    12.02995010    13.09208970
C           7.87013580    11.11282060    12.55298330
C           6.53744270    11.46219440    12.79987430
C           6.58044240    12.66016390    13.46322350
C           7.96744490    13.06826310    13.56149010
C           5.37492990    10.65105340    12.36954980
H           4.85483600    11.22363380    11.58185290
H           4.74603700    10.45420460    13.25530530
H           5.61777400     9.69024850    11.88304040
C           8.59616470    14.23007110    13.91839690
H           7.86214490    14.91160870    14.36329940
N          11.00996780    14.27712250    13.21407410
H          10.93861680    13.88233950    12.27845860
C           9.95267390    14.78103540    13.93686580
C          10.46510310    15.89422320    14.65190980
C          11.79420950    16.08536530    14.27136900
C          12.14947410    15.03811740    13.38755890
C          12.74168970    17.09428020    14.81290340
H          12.62335210    17.99858090    14.19076820
H          13.78149510    16.85923000    15.09990980
H          12.42260550    17.38271330    15.82966330
C          13.37512970    14.77515890    12.65955640
H          14.07616900    15.61555190    12.60037330
N          13.08115290    12.33004570    12.07996850
H          12.32722470    11.96431920    12.66330430
C          13.77913380    13.58576390    12.04017730
C          14.93660640    13.39956760    11.17898750
C          14.98845010    12.12677760    10.77539440
C          13.87241170    11.34501460    11.40109440
C          15.98937510    14.49999710    10.98093610
H          16.98137660    14.09803200    10.71043300
H          16.20562170    15.12858490    11.86237430
H          15.52423000    15.23104380    10.29680820
O          13.55484580    10.16090580    11.23772620
C          15.97563650    11.59640790     9.83478450
H          16.91094970    12.15306090     9.70616050
C          15.74215130    10.60518930     8.99267390
H          16.40875430    10.16852380     8.24314120
H          14.71711540    10.24587820     9.12317280
C           9.71739580    16.74013710    15.62406440
C           9.93674560    16.34416770    17.05397990
C           9.26557830    15.04216670    17.39674570
O          10.11877160    13.97521690    17.37424280
O           8.15497110    14.91367630    17.77046970
H           8.63377670    16.73160360    15.41308500
H          10.11827180    17.75791740    15.47493080
H           9.59719090    17.11570740    17.76689340
H          10.99185090    16.12027360    17.28943440
H          11.00776290    14.32573600    17.19105530
C           5.48273520    13.39971070    14.17889500
C           5.67717080    13.57824230    15.64688210
C           6.16864300    12.28479100    16.32526970
O           7.36250400    12.12792210    16.49240110
O           5.24066640    11.72964100    17.16069410
H           5.40010450    14.40620420    13.73284630
H           4.50923490    12.91479780    13.98923020
H           6.25790600    14.44459340    16.00881770
H           4.63376330    13.78882880    15.93974970
H           4.38697150    11.99149990    16.77421950
O          13.84072020     2.02947660    25.28416060
H          13.31439690     1.36963760    25.73563390
H          14.36802580     2.42946480    25.97567370
O           2.24128680     5.35012390     8.22419260
H           1.37333630     4.96669630     8.09818650
H           2.15899990     5.87200550     9.02237890
O           3.72935750     5.39865210    18.65216450
H           4.13754700     6.26307390    18.70103450
H           4.14573290     4.97938970    17.89911650
O          19.22011950    19.04846760     9.65904240
H          19.82092860    18.63531490    10.27917480
H          19.63288310    18.92142680     8.80480670
O          18.57304570     1.70150790    10.61480710
H          19.01441000     2.54871010    10.67545510
H          19.22609900     1.11837830    10.22787860
O           2.62975860     6.71050600    15.73297980
H           2.83267500     6.77453800    14.79972930
H           3.13253830     5.95448260    16.03608510
O           9.59754660    13.54698280    21.00705720
H          10.02711010    14.30391600    20.60861210
H           8.68326380    13.61862560    20.73285870
O           6.35945220     2.97784830     1.49737320
H           5.43983270     2.79303430     1.30664840
H           6.64042570     3.55391570     0.78643570
O           2.90642360     3.47563860    20.66939930
H           2.40397310     2.79317740    20.22440340
H           2.97272250     4.18184950    20.02667050
O          15.81534670    20.15078740    25.04456330
H          14.87506870    20.24203870    25.19877620
H          16.22316170    20.50562100    25.83450890
O           7.58958050     3.70842810    18.65462680
H           6.87294150     3.12882020    18.91291810
H           7.48331400     4.48205280    19.20820050
O           4.02680110     1.14596860    17.52969740
H           3.69761160     1.66481550    16.79575920
H           4.50467440     1.77383670    18.07159230
O           2.58656790     4.23282910    23.29534150
H           1.82386230     4.80047940    23.40618130
H           2.74828460     4.23045300    22.35190390
O           4.82662820     9.31400490    15.65751170
H           3.93996740     9.46159840    15.32845210
H           4.76450250     9.48331930    16.59756660
O          18.24563600     1.65260680     4.11469790
H          17.77903370     0.84955400     3.88313580
H          17.74701690     2.01691790     4.84605930
O           8.21145630    10.21188160    25.51398280
H           8.88917060     9.89734940    24.91564940
H           7.74698260    10.88533310    25.01703260
O           3.22610210     2.12637900     1.52543600
H           3.13003230     1.89698090     0.60111000
H           2.69968100     1.47555510     1.98970040
O           7.59803490     8.44799140    17.49025340
H           7.91888620     8.85420700    16.68509670
H           8.38356780     8.10068320    17.91280170
O          14.79094310    19.69544790    12.68181510
H          15.23477080    19.05024150    13.23223210
H          15.11855220    19.52309420    11.79909320
O           0.69436600    19.22692110    21.84000780
H           1.49941780    19.52149390    21.41415790
H           0.48457480    19.92266460    22.46303370
O           2.90169980     7.51591300    20.75706480
H           3.75815650     7.82115550    20.45783230
H           2.72033980     8.03910350    21.53784180
O          10.13594910    21.32769390     4.69277810
H          10.23628810    22.18326570     4.27545500
H           9.46557900    21.46483990     5.36212680
O          20.51670460     6.11577320    24.24581340
H          20.54466250     5.77751350    25.14081760
H          19.61290550     6.40837100    24.12847520
O           9.48941330     4.92184110     5.65352680
H          10.30468080     4.42108630     5.62496810
H           8.99541000     4.61884360     4.89169740
O           2.48679160    14.51229860    12.21309570
H           2.57354830    15.46555610    12.21053410
H           2.88121770    14.23367880    11.38663960
O          11.56443410     4.99671650     3.17853260
H          11.91484830     4.22543480     3.62413980
H          10.90389630     4.64801790     2.57992550
O          11.71383860     8.57151890    25.62824820
H          11.16965480     7.90631010    26.04966740
H          11.12221340     9.01507470    25.02040860
O          20.12434960     3.05888440    23.99981690
H          19.16893770     3.05382470    23.94156840
H          20.34057040     3.93720980    24.31290630
O           1.68182900    10.68223190     3.99377300
H           1.90528440    11.57096480     3.71726800
H           0.75033900    10.59545420     3.79121970
O          10.44430540    20.19611170    24.36146740
H           9.78798010    19.79251670    24.92943000
H           9.95780750    20.85132410    23.86121940
O           5.35208940     7.76348300    19.06894110
H           6.11060860     7.88651470    18.49820330
H           5.13090370     8.64583300    19.36687850
O           3.31084510    23.34506420     9.87547680
H           4.12471720    22.85983280    10.01109700
H           2.91375640    23.39454460    10.74501900
O           9.53352550     2.27459570    16.45430180
H           9.25722500     2.87270520    17.14867590
H           8.85832600     1.59627000    16.43974880
O           6.24274680    16.53100970     9.65343090
H           6.36352160    17.31785010     9.12189770
H           5.32733390    16.56750490     9.93077560
O           7.61100580    25.09414860    16.09865190
H           6.79079720    24.75553510    16.45758060
H           7.51683860    24.99507330    15.15126320
O          10.20676040     3.75635220    21.84015850
H          10.29339410     2.89760180    21.42630580
H          11.02895260     3.87737350    22.31511690
O           9.68270210     6.77764800    17.81819530
H          10.04330920     6.45541810    16.99214360
H          10.41635130     7.22265620    18.24241070
O           7.41022160     0.24346750    23.12088010
H           7.44601390     1.15100850    22.81868740
H           6.48968700     0.10039380    23.34082980
O          17.40970990    13.12457470    20.89193530
H          17.73282430    13.93284320    21.29009440
H          18.03284450    12.45400620    21.17170910
O          12.95515540     1.00742540    16.52598380
H          13.01483060     1.61067550    17.26676750
H          13.34900000     0.19572750    16.84577180
O          17.01329230    23.35516550     9.62450500
H          16.33334920    24.02426340     9.70334340
H          16.97975540    23.08662610     8.70635800
O          17.40022090     0.89162530    16.26345630
H          16.68079380     1.37737740    15.86009310
H          17.51413730     1.30071940    17.12130170
O          14.77583500    16.67014120    25.39620020
H          14.01074410    17.14772420    25.71679690
H          14.41170120    15.90132050    24.95738980
O           9.94625850     0.18409880     1.90957650
H          10.83306410     0.26945220     2.25960920
H          10.07314300    -0.02593790     0.98436460
O           7.04956150    14.00192360    25.30549240
H           6.52866130    14.68813990    24.88835720
H           6.79191060    13.19799610    24.85432620
O          19.40765760    22.32767110     3.89398570
H          19.92219540    22.79269220     4.55371140
H          19.23339270    22.98423000     3.21960160
O          17.23281860     6.17090030    19.69626240
H          18.06953620     6.59129430    19.49775310
H          17.47318080     5.35029980    20.12646480
O           6.60383650    23.19115450    14.06447120
H           7.20700220    22.60095020    14.51622490
H           5.91821150    22.61729050    13.72266480
O          20.36644360    20.89951900    13.88103390
H          19.84749410    21.32719610    13.19984530
H          20.80933190    21.61857220    14.33163740
O           2.95871110    16.18045810     8.98486900
H           3.06299300    16.50906180     9.87782960
H           3.05854730    15.23190020     9.06552980
O          15.37180900    10.34484100    23.65328600
H          14.43657490    10.41912560    23.84315680
H          15.41043000     9.87703320    22.81908230
O          12.39726830     5.42028280    12.97313590
H          12.90561770     6.15258220    12.62449550
H          12.00369930     5.01303480    12.20145890
O          12.33230500    20.94613650     6.30710460
H          12.97503950    20.68580440     5.64729170
H          11.51445390    21.04364400     5.81941270
O           9.50119970     6.32379100    21.21091080
H           9.84559820     5.43678860    21.31506350
H           8.70668410     6.21246480    20.68881610
O           4.11251160    17.45578190     6.80486820
H           4.79808280    18.04610440     7.11750840
H           3.66123370    17.17070770     7.59942010
O          10.00058840     9.55441950    23.70960810
H           9.94258690    10.48155690    23.47877500
H           9.24425980     9.15324310    23.28152280
O          10.44394780    13.58639530    10.47894290
H           9.68277450    14.16638660    10.45757100
H          10.81348510    13.64361950     9.59780690
O          20.30573840    15.61917970    22.61167140
H          19.99039460    14.87689880    23.12723920
H          19.55894850    15.86655710    22.06638340
O           5.44108200    18.43547440    19.99064060
H           6.36546560    18.63699720    20.13602070
H           5.38485810    17.48497390    20.08871840
O          18.46816250     8.36652370    14.93279550
H          18.96638870     7.57842350    15.14936160
H          18.64459420     8.96780200    15.65637490
O          19.69551280    22.27195550     9.21538160
H          18.80311970    22.59951590     9.32749370
H          19.69284820    21.41728020     9.64637280
O           1.49721670    11.91056350    22.98066710
H           2.20265340    12.49641900    23.25519180
H           0.83440730    11.99623390    23.66592410
O           4.15250970    13.29668620    22.31009860
H           3.95763800    13.63264560    21.43523410
H           5.10773470    13.24214740    22.33843610
O          14.43715190     8.75995060    17.65942000
H          15.28555680     8.46726990    17.32658770
H          14.37567900     9.67537210    17.38655280
O           2.73884530     1.41122500    24.56258580
H           2.67647410     2.25408770    24.11322590
H           1.92888000     0.95629090    24.33188440
O          14.50646590     5.39597030    20.37668420
H          13.99749370     5.36364320    19.56666370
H          15.40504360     5.55673500    20.08868410
O          20.92094610     8.66828730     9.65998840
H          20.22668840     8.11479760    10.01760290
H          20.49179270     9.17568020     8.97106840
O           9.85411070    24.66636470     6.30403090
H           9.14570240    25.13942340     5.86744830
H          10.49687290    24.50651550     5.61299090
O           0.46909480     4.44037580    10.93830390
H          -0.03264280     5.05382590    11.47511860
H          -0.16674280     4.09489920    10.31173520
O          12.88004970    12.09907050    16.05126950
H          13.78804870    11.79785730    16.08351140
H          12.89379980    12.94878960    16.49174690
O          14.51954080    20.31809230    15.76088810
H          15.45000650    20.13526730    15.89142510
H          14.39501380    20.26187130    14.81348900
O           9.35951810    24.04983520    17.73545650
H           8.77641580    24.70383640    17.35009190
H           8.77473350    23.45317270    18.20263100
O          12.74597640    18.59945110     3.11517190
H          11.84039590    18.86766820     3.27078340
H          12.76929570    18.36109920     2.18841600
O           0.41830590     1.71475090     6.23227360
H           1.28021190     1.83413040     6.63114310
H           0.34523530     2.43067240     5.60112430
O           7.33157920     6.35326960     2.05039070
H           6.77608350     5.74081330     1.56815250
H           6.84047130     7.17487720     2.04804750
O          11.64835930     3.81585910    15.66908170
H          11.04471110     3.13438060    15.96476270
H          12.13182350     3.41146350    14.94869330
O           4.83467250    14.00933460     5.47514490
H           5.37302640    13.70980930     4.74255230
H           5.42382910    13.98917580     6.22928000
O           7.95793290    19.83060840    21.03724480
H           8.47657010    20.54946520    21.39848140
H           8.60687160    19.21187400    20.70216180
O          10.19310570    17.66926770    11.94369220
H           9.68542290    17.27120590    11.23655890
H          10.52167800    16.92645650    12.45015240
O          19.61196330     8.27009390    22.43051340
H          20.53312490     8.01220890    22.46497150
H          19.15785030     7.60637470    22.94963650
O          10.88705730    16.34007640     2.01689100
H          11.43911270    15.77203660     2.55429120
H          10.01105120    15.96120170     2.08970260
O          19.64688490    15.35171410    10.12547210
H          19.20257950    15.53402040     9.29746910
H          19.89526180    16.21389960    10.45890810
O          17.83602140    24.07610890     1.69907440
H          18.70668980    24.46976470     1.75567830
H          17.51996990    24.31792260     0.82851700
O          19.24653630    10.96621320    12.21260170
H          20.00498580    11.47288800    11.92231750
H          19.20282750    11.11987020    13.15637680
O           4.47813840    21.23487660    19.28589250
H           4.83391620    21.63150980    20.08108710
H           5.06702230    20.50383380    19.09874730
O          12.33442500    14.80573180    25.22986220
H          12.43353180    14.05023480    25.80920220
H          11.44207760    15.11367130    25.38835910
O          19.46468730    18.35364340    14.16092400
H          18.98229410    18.28180120    14.98455330
H          19.93420030    19.18491170    14.23006730
O          17.62262150    18.05776020     6.90376140
H          18.02088740    17.26237680     6.55023240
H          16.89936260    17.74285890     7.44594720
O           3.38936140     7.09231850    13.13622380
H           3.01152610     7.35575770    12.29713340
H           4.19152740     6.62565660    12.90172670
O          15.50040530     7.63121030     5.82874250
H          16.08683590     7.58882240     5.07340380
H          14.80182650     7.00941940     5.62479450
O          16.70509910     3.22975900    23.68463900
H          16.47782900     2.32993790    23.91895100
H          16.98474880     3.62849020    24.50867840
O          14.91989710    20.35272220     3.76328660
H          15.72464850    19.87845040     3.55430750
H          14.29240320    19.66857720     3.99658730
O           6.33102080     7.41442390     7.80165530
H           6.05665780     6.54132990     7.52118350
H           5.73084740     8.00981810     7.35273500
O          11.81245230    21.28172110    16.31660460
H          11.64932250    22.22106360    16.23143580
H          12.73644640    21.17752270    16.08942790
O          19.99233630    18.46664430     2.45273830
H          20.36830900    17.94738960     3.16354850
H          19.22223470    18.88195610     2.84092760
O           3.03288050     1.79839430     4.69494200
H           2.59167790     1.13971960     4.15854740
H           3.65519670     1.29901800     5.22369340
O          19.13476370    18.60240940    23.20438580
H          19.50507930    18.12301250    23.94551660
H          19.77402110    18.48744960    22.50127220
O          18.07086940    22.89455410    16.63609700
H          17.73160360    23.77772330    16.49069210
H          18.74405100    23.00413890    17.30770110
O          18.56840520    11.62601570     5.52732420
H          18.84833340    11.33537670     4.65933750
H          17.64946940    11.86872580     5.41382550
O           5.73674580    21.33807370     7.54690120
H           5.42761950    21.63488580     8.40280820
H           5.17628050    21.79353330     6.91867690
O           0.32361560    11.94228550    25.24794960
H           0.71516180    11.20846560    25.72169110
H          -0.36848310    12.25984950    25.82793430
O          20.09052850     6.07724430    12.70386980
H          20.35105900     5.91745470    13.61096670
H          19.13419910     6.03938530    12.71913050
O          13.82276820     2.26485510    11.08784680
H          14.09035020     1.34596770    11.07117750
H          14.64156720     2.75102730    11.18498130
O          19.14564510    13.25892540     1.05766260
H          18.45512200    13.64939120     1.59333720
H          19.75728030    12.88404180     1.69137920
O          17.88843540    15.94261840     0.55125620
H          17.04601860    16.32889560     0.31176150
H          17.67945100    15.03820320     0.78490170
O          13.24844260    22.92551040    22.97045520
H          14.02198410    22.98986630    22.41034510
H          12.60521890    23.50178340    22.55765530
O           6.44570210    12.61109070     9.57044220
H           6.80315970    12.39703180    10.43220420
H           6.20414020    11.76466370     9.19435410
O          14.60485940    18.92464070    22.35505100
H          14.96370790    19.39958950    23.10463910
H          15.21007060    19.11560250    21.63847350
O           8.68800930    21.25811770     1.93325530
H           9.27828690    20.54068180     1.70284430
H           7.81887870    20.94174580     1.68677680
O           2.06812050    23.29722210    12.43089580
H           1.23398730    23.61468510    12.77683160
H           2.39148860    22.69476700    13.10075470
O          13.90558150     0.34172180    21.01795960
H          13.30857940    -0.11460770    20.42501640
H          13.59272960     1.24633540    21.02341270
O           2.39146920     9.39393810    14.22708800
H           2.73255900     8.55853560    13.90772530
H           1.93701480     9.77084160    13.47366430
O           5.03160050     0.82662910     6.20778040
H           5.36368420     1.05282180     7.07656620
H           4.76579280    -0.08975310     6.28408100
O           9.43034840    18.44399450     0.43426280
H           9.71757220    17.85940170     1.13567940
H           8.49123290    18.27749250     0.35319910
O           9.16017150     2.59730530     9.55753900
H           8.62466720     3.18403270     9.02348140
H           8.54195880     2.20147820    10.17184070
O           2.25443980     9.07484720    22.86938100
H           2.18344830     8.75813870    23.76987270
H           1.80982730     9.92247870    22.87785150
O          10.16419120     1.47501930    20.80578990
H          10.89981940     1.53672990    20.19646640
H           9.42923450     1.86736240    20.33447460
O          10.78601740    24.21399120    22.51167300
H          10.42942520    24.88243870    21.92664910
H          10.37569710    24.39266010    23.35780910
O           3.66027260    18.85505870    17.70032690
H           3.92445040    18.18375400    17.07120900
H           4.24924660    18.73086550    18.44458390
O          11.51560120     3.28319570    18.97084240
H          12.28600880     3.54678940    19.47405430
H          10.92929740     4.03839350    19.01727870
O          16.23894310    17.13332750    18.52254680
H          16.17096520    16.94233890    17.58706090
H          15.59815120    16.55251690    18.93276020
O          11.33123400    23.89156150    15.73675440
H          11.77104280    24.73168560    15.86711030
H          10.52190490    23.96385570    16.24270820
O          19.32594870    13.95686340    14.55217080
H          18.45226100    13.77626900    14.89899540
H          19.16927150    14.49752900    13.77798370
O           6.71441130     0.12927630     1.20075760
H           6.85020490     1.05412330     1.40679130
H           7.35804800    -0.33277130     1.73785700
O          19.55076030     5.39357660    15.54512310
H          20.28446200     5.12173180    16.09649660
H          18.77274890     5.10569100    16.02266880
O          -0.26781510    25.21566770     9.04276660
H          -0.24901440    24.32330510     9.38855360
H           0.65113020    25.42929840     8.88110350
O          14.22169970    23.15501400    17.76708600
H          14.18594460    22.39361950    17.18809130
H          14.87416460    22.92296980    18.42790030
O           9.69161890    12.27342030     6.29387710
H           8.94185830    11.76893810     6.60945180
H           9.96815590    11.81906510     5.49806360
O          16.02453800    12.96493430     5.99665980
H          15.42424680    12.22272870     6.06746630
H          15.50430010    13.65538790     5.58573680
O           7.10493420     9.35986140     4.23225260
H           6.92394920     8.89930440     5.05162000
H           8.06024550     9.39261150     4.18187140
O          14.32894040     9.15761660     1.75918880
H          13.50929930     8.96752930     1.30280270
H          14.41221900     8.45548250     2.40440560
O          12.21716020    10.27763840     3.80338430
H          11.47256090     9.68950940     3.92951540
H          12.20694070    10.47974780     2.86782070
O          20.26032070    21.14525600    24.33014110
H          19.77939220    21.15232850    25.15772060
H          19.69466780    20.66116910    23.72853660
O          11.79674240     2.48070240     8.65298840
H          10.94144540     2.17823150     8.95829110
H          12.42521000     1.91748460     9.10470290
O           2.20355750     6.75051500    10.59239200
H           1.74265050     7.58896350    10.62070470
H           1.57071640     6.11773200    10.93199350
O           9.63545130    22.79656980    13.61921600
H           9.73499680    23.64571190    13.18877320
H          10.45236110    22.67623900    14.10337540
O          17.49050520     4.13961940     0.26304210
H          17.02255820     4.14742950     1.09802500
H          18.37923050     4.41820140     0.48393210
O          11.51094910    11.64956090    18.78993610
H          12.11972710    11.72609900    18.05525020
H          10.70840450    12.06975360    18.48075490
O          10.60511300     3.16055040    25.34650610
H          10.00637820     3.88210320    25.15386770
H          11.45764450     3.46799250    25.03844450
O          14.01193050    13.86626240    23.22181510
H          13.52408600    13.55323030    22.46007350
H          13.34315680    14.01333050    23.89065170
O          16.24099730     7.46653750    15.94241430
H          16.50165940     6.72709040    16.49150850
H          17.01356120     7.65268040    15.40881440
O           4.34658860    11.22205640     0.78269300
H           4.86369990    10.43331240     0.94612410
H           4.68258190    11.86285310     1.40936630
O           8.99800780    15.88285730    10.13077350
H           9.46622180    16.30925750     9.41300580
H           8.08080010    15.89170360     9.85712340
O           6.97622680     5.73679920    20.46265600
H           6.30838060     6.28056380    20.04488370
H           6.53343820     5.35277130    21.21941950
O           6.73549370    12.49790190     4.10000510
H           6.52588460    11.69240190     4.57272770
H           7.26853370    12.20909690     3.35926770
O          19.68274500    11.27323910    15.05665110
H          19.99591260    11.29004860    15.96101670
H          19.55003170    12.19418620    14.83198640
O           3.24249150    19.58684540    21.65171620
H           3.32311150    20.53881650    21.71074870
H           3.90380290    19.32985690    21.00917820
O           3.41982670    19.67529300     9.23061280
H           3.18642780    18.91675380     9.76575570
H           3.71204730    20.33290670     9.86178780
O           8.66373350    22.04674340     6.89040990
H           8.98649880    22.92392920     7.09680410
H           7.72971060    22.08044430     7.09704260
O           1.54854540    14.83426950    17.22937390
H           1.55750800    15.78980920    17.28502850
H           1.68115950    14.64722540    16.30004120
O           5.58765940    10.03592590     8.87066940
H           4.65639110    10.20556160     8.72856240
H           5.60826250     9.23052880     9.38752940
O           2.96082590    11.56489370    15.80890370
H           2.59013990    10.82136150    15.33352760
H           2.45475510    12.31895260    15.50638100
O          10.01230620     8.75819970     4.28120370
H           9.87035470     8.33805180     5.12947030
H           9.82672310     8.07210920     3.64005570
O           8.64940740     3.19282790     3.30626540
H           9.02866360     2.44432230     2.84568410
H           7.91506000     3.46552730     2.75617310
O           7.41276600     4.39347360    24.95840840
H           8.12043000     4.99849890    24.73617360
H           7.21963640     3.93920350    24.13830380
O           6.51167820    14.70068840     7.61984870
H           6.68961860    14.11935040     8.35918430
H           6.53533840    15.58059410     7.99593210
O           5.58680960     2.06228520    19.89572530
H           5.53762670     1.17595610    20.25382230
H           4.79854920     2.49645920    20.22187040
O           4.55066870     4.83007380    16.21707530
H           5.47121140     4.94555470    16.45265390
H           4.57083700     4.27649020    15.43645380
O           5.89307070     1.64489210     9.12700080
H           5.02554420     1.98494420     9.34607790
H           6.40900330     1.77422680     9.92281340
O          13.12028790    25.17425730     5.91534470
H          13.32798290    25.19281200     6.84955640
H          13.64755920    24.45532040     5.56699510
O          11.72675800    23.42888830     3.79491470
H          12.37087250    23.06294820     3.18874930
H          12.02578260    24.32486340     3.94997740
O           7.62129830     4.04210090    13.97683810
H           8.49295140     3.65096690    13.91795640
H           7.56591180     4.36967180    14.87453560
O          12.86536980    14.54775520     2.48326920
H          13.52692600    14.05444910     1.99826970
H          12.84546470    14.13631820     3.34730340
O          13.05779550    21.68972970     2.11383340
H          12.95311260    21.26326940     1.26330150
H          13.72360230    21.16870310     2.56268170
O          14.04195790     4.74746180     9.06273460
H          13.69164280     5.46552900     9.58988760
H          13.92030140     3.96939640     9.60683540
O          18.49954990     0.53831600     7.07124280
H          18.97515110     1.15048180     6.50973750
H          19.12648010     0.30460960     7.75576450
O           1.93836640    13.56720350     5.66891340
H           2.88247350    13.59124760     5.82484770
H           1.85280780    13.57446960     4.71557190
O          12.72910790    11.21379660    23.21440700
H          11.89735220    11.66223140    23.36711500
H          13.15959640    11.73246000    22.53477480
O          17.11751170    19.17766760    20.46234510
H          17.06169510    18.55534740    19.73719980
H          18.05622670    19.27694130    20.62105180
O           3.96772860    16.40343480     4.43263010
H           4.19092560    15.62760830     4.94693330
H           4.19168470    17.14023780     5.00113440
O          13.83512880     5.67428400     5.40437080
H          13.02665040     5.24037550     5.67698430
H          14.52778720     5.20279600     5.86713840
O           5.08999400     5.06950570     7.00433110
H           4.16709520     5.29802850     7.11508890
H           5.17260740     4.84965900     6.07639070
O           5.77445890     5.78236960    12.70230200
H           6.21282340     5.01983120    13.07993220
H           6.26089380     6.53225900    13.04476260
O           1.45547250    16.75681300     3.52895780
H           1.85715630    17.03268240     2.70507810
H           2.18958230    16.45555880     4.06427100
O           5.39075040     7.28913020    10.61084460
H           5.75430200     6.83915900     9.84822560
H           5.49595210     6.66565900    11.32948780
O          16.41409300    12.82442190    24.16088870
H          16.25367160    11.94251820    23.82511710
H          15.72540090    13.35973550    23.76671030
O           4.77929970    16.81252480    14.98545930
H           4.48120260    16.66330340    14.08818530
H           5.62330480    17.25325780    14.88727090
O          10.95273400     6.51016430    15.37622550
H          11.30554680     5.70488600    15.75475220
H          11.07688240     6.40582130    14.43286420
O           6.33552170    11.90938570    24.20412250
H           6.03790380    11.54817580    23.36914630
H           5.77676820    11.49077800    24.85894580
O           9.29840470    20.25375560    16.79422190
H          10.22034650    20.48472400    16.68060490
H           9.09334750    20.52048110    17.69034770
O           2.05660390    17.45535470     0.81302080
H           1.13771580    17.22018050     0.68429620
H           2.26032400    18.03568080     0.07956920
O          12.35126300     2.02941270     4.07909300
H          12.63890460     1.31838670     4.65175010
H          12.64952850     1.77031820     3.20723340
O          15.60082150    10.79863070    16.04696080
H          16.07726290    10.33281040    16.73416330
H          15.59820750    10.19372840    15.30512710
O          18.96237370    13.25292870    23.33418460
H          18.08528520    13.33486180    23.70866390
H          19.51986890    13.02392580    24.07781790
O           6.08729980    15.70044800    23.53122140
H           5.68990800    16.56014060    23.66992760
H           6.90827700    15.88676360    23.07568360
O          15.09889510    -0.01814230    23.99880220
H          14.57637980     0.78364010    23.97998240
H          14.46838570    -0.71030870    24.19778820
O           8.14615440    20.86132050    11.16305640
H           7.90262700    21.75249860    11.41351410
H           7.74296430    20.30628200    11.83059020
O           7.75447940    22.20648960    24.83777620
H           7.94445320    22.85128210    25.51923560
H           7.37932400    21.46288870    25.30952640
O          10.19856830    12.41612050    23.47863580
H           9.96079160    12.86082360    22.66504290
H          10.11923980    13.09118840    24.15259550
O          14.25650980     7.46772960    11.89628120
H          14.32928850     8.38026140    11.61660000
H          14.13378330     7.51684190    12.84430980
O          17.82898330    19.97323420     3.79974130
H          17.69665910    19.48469730     4.61217830
H          18.33564190    20.74176600     4.06220870
O           9.60120010     2.03460620    13.11992170
H          10.00448320     1.46121300    12.46814250
H          10.32626340     2.30279920    13.68435570
O           4.98811860    24.15678220    24.99897000
H           4.58448120    24.88167190    24.52164270
H           5.40631720    24.57057190    25.75403400
O          16.94457820    17.11445810    23.43779560
H          16.20216180    17.26153370    24.02381520
H          17.41395190    17.94865420    23.43185620
O          16.28980260     3.41574550    11.15512180
H          17.12464710     3.23036120    10.72512530
H          16.28577800     4.36591770    11.27083110
O          12.49249650     2.70379610    13.50876900
H          13.11005780     2.26153420    12.92631440
H          12.26384640     3.51064280    13.04730510
O          11.89768120     7.98581700    18.84519000
H          12.84691520     8.10483170    18.87715910
H          11.54673960     8.72517200    19.34160230
O          15.38309960     2.62957330     1.81811730
H          15.65062900     1.85132680     2.30698490
H          15.94027330     3.32951710     2.15851070
O           2.60339360    19.91163830    14.13973330
H           2.89816830    19.13773350    13.65972420
H           1.64840890    19.84668350    14.13561730
O           5.37599520     4.92475410    22.27289960
H           5.35299160     5.58754730    22.96312330
H           4.49396710     4.55295040    22.26837920
O          15.96311280    11.51226810     3.07884170
H          15.75745870    10.92155170     2.35427810
H          15.57509710    11.09323410     3.84701200
O           2.22465110     1.12825240     8.52779670
H           2.52947000     1.73768250     9.20004080
H           2.77944990     0.35571140     8.63554950
O          13.33500860    16.52148060     4.86156610
H          12.96922110    15.92217730     4.21097520
H          13.36726950    17.36803820     4.41599800
O          15.26754280    15.24767590    16.16141700
H          15.87509160    14.92354110    16.82628820
H          15.50793270    14.77318860    15.36561300
O          18.56254010     1.58539160    13.84363840
H          18.21740530     2.44300750    13.59542560
H          18.32748990     1.49062430    14.76667690
O           8.28761860    17.51243020     4.76708750
H           7.98411420    17.83863450     5.61426400
H           8.72015090    16.68316840     4.97073320
O          12.90679550    19.75337790     9.91342930
H          12.71987820    19.99051860    10.82175640
H          12.09850880    19.95509910     9.44203470
O          13.05894470     3.28943660    21.55372240
H          13.08723160     3.39187070    22.50500490
H          13.65491680     3.96132920    21.22265050
O           3.05768730    14.93475440    24.66914940
H           3.94397310    14.59187410    24.55441860
H           3.01765730    15.69434640    24.08807370
O          10.21889110     6.76439670     1.47107280
H          10.62630840     6.33113570     2.22109130
H           9.28361800     6.58680580     1.57086100
O          13.83376220    16.08289530    19.37207980
H          13.68087580    17.02637480    19.32006260
H          14.31071570    15.96246050    20.19320300
O           2.98472670    11.54824160     8.23230550
H           2.83500600    11.13084220     7.38401650
H           2.11541030    11.82956220     8.51757620
O           8.89174270    21.92795180    22.44536590
H           9.42090990    22.71029280    22.28994180
H           8.39478300    22.12860680    23.23846240
O          17.05851170     4.56133030    16.44498440
H          16.87000080     4.66429420    17.37777330
H          16.62041660     3.74609640    16.20065500
O          11.95455170    19.78665350    21.23261260
H          11.68056870    20.27840610    22.00678630
H          12.81096840    19.42895130    21.46677590
O           7.40103820     2.85798430    22.52901650
H           8.23023220     3.15828390    22.15687560
H           6.73069950     3.27009800    21.98400310
O           7.01736690    13.53318500    20.00616460
H           7.35000320    13.79363920    19.14724160
H           6.87882900    12.58888630    19.93308640
O           7.24322410     1.55104080    11.42510700
H           7.74650810     1.87509450    12.17205140
H           6.41538330     1.25564350    11.80412200
O           1.11208490    20.52832600     2.11983440
H           1.90538360    19.99327280     2.14490600
H           0.40923070    19.92615890     2.36401220
O           5.09189750     9.83321670    22.87435150
H           4.13571210     9.87594890    22.86358640
H           5.33379130     9.65202430    21.96611790
O           1.84225230    10.12284850     0.96434410
H           2.61506610    10.63363270     0.72332580
H           1.70828960    10.31465910     1.89251150
O           0.62420990     4.67779020    17.71764760
H          -0.04373410     4.40989730    18.34877010
H           1.08512450     5.39798160    18.14789390
O           5.78546810     3.33626290     4.69447090
H           6.67378850     3.03636720     4.50164560
H           5.38427880     2.60771750     5.16828580
O          19.16718100    11.51502130    18.16360470
H          19.30843540    12.45580100    18.26949500
H          19.84309010    11.10877900    18.70614240
O          15.80786510    21.84080700    19.68745040
H          16.69943810    21.79332730    19.34237860
H          15.65493200    20.97915080    20.07525630
O          17.16509060    23.00115780     6.79471350
H          17.89982220    23.60264020     6.91562030
H          17.56673810    22.19402120     6.47309060
O          17.73789020     3.95521280    21.37124440
H          18.17636300     3.10456300    21.35208320
H          17.17505840     3.91718980    22.14455410
O          12.88126950    15.95762920     7.39649530
H          12.38332840    15.15704060     7.56186150
H          13.07645130    15.92912580     6.45984030
O           1.46935220     7.16461940    18.27674670
H           2.02436210     7.07005410    17.50263210
H           2.08456560     7.20673370    19.00884630
O          10.42318730    24.11271480     8.84025760
H          11.27957530    23.68895910     8.78313160
H          10.22372530    24.37190630     7.94066570
O           5.22193670     7.09775920    23.95590780
H           4.94720360     7.96250530    23.65100290
H           4.96320060     7.07528110    24.87720110
O          16.42344670    13.77988430    18.18547820
H          17.19914820    14.09215740    18.65131380
H          16.11207200    13.04044820    18.70750620
O           5.23458810    24.47417260    21.01050950
H           4.34672210    24.52380560    21.36471560
H           5.54514070    23.60481830    21.26351740
O          12.12384610    17.90041730     0.16181860
H          11.76110360    17.34926410     0.85527330
H          11.38956260    18.44660760    -0.11877910
O          14.86472030     5.54172130    -0.00947780
H          15.46929360     4.85789200     0.27879390
H          14.61891370     5.99873400     0.79485470
O           4.65256500    10.13584610    19.98555370
H           5.44865420    10.54612830    19.64770510
H           3.94497470    10.71208480    19.69659610
O          19.46711730     5.29920050     4.40558580
H          19.23641780     4.37384840     4.48764850
H          20.41659160     5.29948090     4.28422880
O          18.07293700    10.19088170    21.66290090
H          17.25995640     9.69044210    21.73256680
H          18.75199890     9.58797740    21.96558380
O          17.89772800     6.38495210    23.49808690
H          17.03251840     6.77563950    23.62059210
H          17.83433150     5.91920140    22.66424750
O          20.18774220     4.82034640     1.21918930
H          20.49107170     5.49325420     1.82862960
H          20.37211230     3.99329830     1.66442020
O           3.92226910     6.16960670     0.38184650
H           3.34275720     5.81492040    -0.29239050
H           3.78336740     5.60190580     1.13990600
O          20.10778240    17.47283170    -0.08146090
H          20.05065730    17.89876370     0.77384620
H          19.43872260    16.78886410    -0.05358310
O           7.21275140    23.56432340    11.54646020
H           7.78019430    24.31478310    11.37024780
H           6.92830710    23.68658070    12.45220660
O          17.49486730    21.46196750    23.33902550
H          16.93574140    21.62726780    22.57988930
H          16.97919460    20.87621500    23.89328770
O          16.49598880     9.84931090    13.23077680
H          17.05402950    10.61170480    13.07722760
H          17.09987260     9.16442580    13.51798530
O          16.72678760    14.01830200     2.35818860
H          16.90833470    14.66177750     3.04317900
H          16.40992160    13.24848560     2.83063890
O          16.82860760    21.61612700     1.37867080
H          17.26795960    22.46478080     1.32400430
H          16.86180880    21.38864710     2.30785470
O          15.51444150    11.58674530    19.47745320
H          16.02228550    12.04396630    20.14773180
H          16.01277540    10.78846930    19.30237960
O           2.05875640    23.70883370    19.31022830
H           2.79167890    23.12777710    19.10668370
H           2.24243350    24.02522470    20.19475560
O          19.23733140    21.89596940    20.13978580
H          19.46540450    22.39025120    19.35244750
H          19.84152030    21.15355110    20.13990780
O           4.62612630    20.98322110     2.69977380
H           3.87623070    20.99726100     3.29449320
H           5.16463420    21.72488020     2.97578810
O          18.58763690     1.38235060    21.56312370
H          19.01869200     0.62329680    21.95588300
H          17.67399980     1.11447350    21.46442220
O           6.62062360    18.74794010     8.26053050
H           7.32374950    19.15057950     8.77016540
H           6.16011000    19.48663520     7.86242340
O           6.86768290     8.10763260    14.16649150
H           7.54724120     8.70123200    14.48598000
H           6.05295320     8.46289350    14.52178860
O           3.53100870     2.95652650    10.18696210
H           3.30820940     3.15398570    11.09668830
H           3.69477960     3.81173540     9.78943440
O           1.58831930     4.16690160     4.80990170
H           2.19016030     4.89925430     4.94285820
H           2.15794710     3.40498850     4.70386650
O          16.50272940    19.51753810    10.29803370
H          16.13502500    18.84813690     9.72103500
H          17.39068600    19.65623280     9.96859460
O           9.78130440     0.37401100    24.67724610
H           9.86404710     1.26336090    25.02140050
H           8.89066700     0.33391400    24.32883640
O          20.28685950    25.11083790     0.71543130
H          21.06673050    24.57904050     0.87425620
H          20.20378300    25.13541220    -0.23783990
O          20.25614930    24.39113810    13.10371880
H          19.61179350    23.68658260    13.03559400
H          19.98674200    24.88824460    13.87607670
O           7.48154210     5.58167650    16.39750100
H           8.17144970     5.07432600    16.82511520
H           7.54411600     6.45141030    16.79231640
O          13.27369020    19.21178440    18.88828850
H          12.62347030    19.82857510    19.22446820
H          13.43901920    19.50310900    17.99161150
O          16.83485220    17.71077350    12.92598060
H          16.72083280    18.12550350    12.07086180
H          17.74414060    17.89447980    13.16194060
O          14.55140300    12.44971660     0.84045940
H          15.33431530    12.64692400     1.35464780
H          14.87267400    12.34758280    -0.05541200
O          15.18719580    15.76677420    21.57707790
H          15.74623110    16.23541260    22.19682690
H          14.72620110    15.12038330    22.11176870
O          12.65825750     4.87314130    23.99481010
H          12.81990720     5.77934310    23.73232460
H          13.46239950     4.60559700    24.43979070
O          18.87765500    16.41002460     4.82403900
H          19.23275950    16.30436900     3.94144580
H          17.95071980    16.18745990     4.73749690
O          14.02724080     6.28413010     2.73774620
H          13.09997080     6.18627260     2.52135660
H          14.11712460     5.87355230     3.59773400
O          16.70987510     0.33054970    12.05250550
H          17.14824490     0.24741940    12.89935400
H          17.24993710     0.95110120    11.56313710
O          14.64130500    10.48086830     5.46898410
H          15.00169940     9.62199590     5.68963000
H          13.74402900    10.29944420     5.18931720
O          -0.07169010    17.57985120    11.66072850
H           0.88156270    17.50161170    11.69839480
H          -0.32569930    17.84139820    12.54577350
O          17.28327370     9.70243640    17.95969200
H          17.87441060    10.38907530    17.65095900
H          17.68173790     9.39089680    18.77234270
O           1.84803920     1.42320790    12.09256940
H           1.38874960     2.25839230    12.00452420
H           1.15013270     0.77462830    12.18477920
O           4.14370920    21.55511280    24.85965730
H           4.75696230    21.12227250    25.45362850
H           4.36516480    22.48424530    24.92211150
O           2.03227380    21.92024990    23.38973240
H           1.19233080    21.62099840    23.73783490
H           2.65359260    21.77161030    24.10254480
O           0.20403820    23.96663480     5.62688880
H           0.07624010    24.90108680     5.79029230
H           0.39000270    23.59587480     6.48955110
O           7.08789680    11.00893210    19.26307110
H           7.65598680    10.30939480    19.58579830
H           7.22441430    11.01044460    18.31565670
O           5.38572550    15.64008050    20.15179820
H           4.56783060    15.23846720    19.85856250
H           5.97045900    14.90023710    20.31596760
O          17.96446420    22.35574530    12.24364470
H          17.20081520    21.83908460    12.50080970
H          17.64911080    22.91044040    11.53013230
O          11.48464010     9.78210160    20.67510220
H          11.47614000    10.55488590    20.11033440
H          12.15009210     9.97535130    21.33545110
O           1.53124950    22.80397220     8.08192540
H           2.21087030    23.01669310     8.72153190
H           0.75786160    22.60749440     8.61060140
O           0.62006140    19.16186710     4.89163540
H           1.14599370    18.37597080     4.74333330
H           0.76975010    19.38017650     5.81150770
O           1.32397790    22.68385700    15.23378660
H           1.19791940    23.63176920    15.27624610
H           2.21453620    22.54597470    15.55647750
O           5.68776850    23.94904900    17.46710970
H           5.28941770    23.08048440    17.41106030
H           4.95775650    24.55576710    17.34378430
O          17.54510500    23.91252900    24.69340130
H          17.45160290    22.99065590    24.45331950
H          16.76138310    24.33289720    24.33942030
O          17.99328230    16.23430060    21.02056690
H          17.22726250    16.08985140    20.46506880
H          17.63076210    16.52287100    21.85814670
O           1.18386410    14.48759750     0.92503320
H           0.62755920    14.00888920     0.31054650
H           1.93463090    14.76676270     0.40096390
O           2.54362110    24.13276290    22.00132180
H           2.37491320    24.67004200    22.77533720
H           2.65936280    23.24699590    22.34520340
O           7.90092230     7.71796320    23.29493900
H           7.03242540     7.38102910    23.51498600
H           8.25327590     7.08292390    22.67139820
O           4.23790980    23.00587270     5.99807690
H           3.34859280    22.73169520     5.77408270
H           4.69053980    23.06145670     5.15649080
O           1.23912570    17.57446480    17.79052540
H           1.45442530    17.23310470    18.65848350
H           1.85457370    18.29536250    17.65724560
O          16.62383460     6.62063500    10.25842380
H          15.87313180     6.91346450    10.77507500
H          17.27829550     7.30929570    10.37529950
O           8.57496450    15.36775300     2.51175500
H           8.33410640    15.19824310     3.42251590
H           8.28640370    14.58738710     2.03847740
O           5.58014390    19.38065720    11.83478160
H           4.73416280    18.97377010    11.64772130
H           6.08192540    18.69684600    12.27846240
O           7.56012820    23.03804970    19.41985320
H           7.83764310    22.91000750    20.32694820
H           6.87255240    23.70200540    19.47118760
O          16.57074170    25.12993430    20.57696910
H          16.87069510    24.23511510    20.41708760
H          15.64607620    25.03533360    20.80560680
O          14.97764110     3.62920310     7.01540900
H          14.66378780     4.20096540     7.71599150
H          14.53694060     2.79409580     7.17228940
O           4.64201590     0.81883520    12.25516130
H           4.61902090    -0.09124430    11.95942780
H           3.73800040     1.12150420    12.16925720
O           8.56277750    12.19318290     1.90123190
H           8.47240830    11.45133020     1.30313550
H           9.48955630    12.42778590     1.85352670
O           8.14611720    23.87404250     3.37587210
H           8.37297340    23.00041580     3.05721430
H           8.83178140    24.44244580     3.02513690
O          16.06442450    15.92130570     4.30982070
H          16.05636020    16.62924580     3.66562410
H          15.28964140    16.07945440     4.84920170
O          11.31902030    11.36786650    13.97649290
H          11.29867940    10.41187860    14.02012730
H          11.86428450    11.62993810    14.71827220
O          18.67777060     4.42403940     9.51711080
H          19.23620030     4.65316680     8.77421950
H          17.86094470     4.89686780     9.35754300
O          12.66704650    12.80460170     4.68363900
H          12.23359580    12.67872330     5.52774000
H          12.90332220    11.92094420     4.40158610
O          19.81584740    13.68867300     3.67647550
H          20.66413310    14.12633710     3.74784710
H          19.70629690    13.24042220     4.51510670
O          18.37185480     7.32655140     1.03170650
H          18.02929880     8.15441130     0.69475750
H          18.02291870     6.66300870     0.43657030
O          19.06962780    18.41633800    16.95182800
H          18.82431980    18.21063230    17.85390280
H          19.94785310    18.04875180    16.85267830
O           8.75522990    10.01954080    15.62427810
H           8.54443260    10.91112140    15.90155320
H           9.70580860     9.95791720    15.71827220
O           7.38281110    18.82477190    23.83681680
H           7.37931870    19.50553510    23.16392710
H           6.45759150    18.67643360    24.03225520
O          13.31705670    12.51618860    20.71556850
H          13.94566440    12.09357260    20.13035010
H          12.49514960    12.51552390    20.22495650
O           0.11557150    11.47023200    20.75371550
H           0.83355280    11.70063400    21.34333040
H          -0.60384990    11.22649860    21.33617400
O           3.17790270    21.33451080    16.71468930
H           3.50269170    20.78009410    17.42417340
H           2.96279880    20.72193340    16.01133350
O           4.52204080    16.38082120     1.63306680
H           3.69913010    16.39666560     1.14439640
H           4.25668720    16.43851850     2.55093960
O           2.20793100     3.16643790    16.06453700
H           2.90180920     3.81034730    16.20646480
H           1.41053340     3.60391020    16.36288260
O           0.99035980    18.24508670     7.84042600
H           1.56748150    18.96839140     7.59548710
H           1.50884580    17.45794870     7.67364170
O           3.32575370     9.11993120     5.67321830
H           2.72512410     9.79733750     5.36241670
H           3.61593560     8.67376230     4.87763070
O          16.63379670     9.24750800     0.27538120
H          16.37448500     9.63546560    -0.56036900
H          15.86812590     9.35881040     0.83893400
O          12.08517650     3.76651310     6.35834740
H          11.98039820     3.67428420     7.30531450
H          12.23679830     2.87445330     6.04614210
O           4.72814890    21.34459690    13.32327750
H           5.24577950    20.63783450    12.93756200
H           3.87681870    20.94643020    13.50474830
O          11.60799790    13.45092300     7.77554270
H          12.08959480    12.67950150     8.07421880
H          10.80109600    13.09887790     7.39977120
O          13.86464120     4.32851270    17.42135810
H          13.19630150     3.69232960    17.16675190
H          14.07063580     4.79635380    16.61208530
O          18.99090960    10.00506020     2.91534760
H          18.26609230    10.14506530     2.30602880
H          18.90354350     9.09093670     3.18549110
O          12.32174590     7.60778050    22.96886830
H          12.16990570     8.05790330    23.79987140
H          11.54236980     7.79888920    22.44706150
O           8.56898020     9.26917080    20.69497490
H           9.42557240     9.56717680    21.00103570
H           8.52442260     8.35163500    20.96400070
O          19.71457480     7.27673150    19.58994480
H          19.89345550     7.87521650    20.31523700
H          20.51171110     7.29711910    19.06042670
O          11.97780900    11.49661540     0.76541570
H          12.89456370    11.58109000     1.02743920
H          12.01474290    11.16751100    -0.13267010
O          16.95399280     4.60773660     2.94844010
H          17.35925480     4.07695770     3.63420200
H          17.11162380     5.51176400     3.22068830
O          19.67235950    14.33658600    18.26187900
H          19.42245290    15.24185470    18.07675740
H          20.58000560    14.27310280    17.96459200
O          12.86181550    14.69167520    17.21436690
H          13.18431000    15.04035660    18.04542160
H          13.52036290    14.95609760    16.57200620
O          15.11622240    23.06324960     5.11548280
H          15.82885740    23.15637400     5.74770980
H          15.12134740    22.13450430     4.88388300
O           9.70983890     5.52892350    24.27786640
H          10.07809730     6.21183820    24.83844180
H          10.18809600     5.61247250    23.45292850
O          -0.11282780    22.87699510    18.02532770
H           0.63977000    23.32394220    18.41271210
H           0.20432430    22.56440160    17.17801860
O          13.42796800    25.10353850     2.24919840
H          14.29208180    24.75666240     2.47104450
H          13.17644210    24.63055610     1.45594320
O           2.08176570    17.05714420    23.37471580
H           1.32644990    16.47774700    23.47486880
H           1.82188180    17.67322730    22.68978310
O           9.76942920    15.07050800    24.76387790
H           9.68601800    15.60944270    23.97722630
H           8.87047100    14.95568750    25.07197380
O           8.43808080    16.68403820    22.45951840
H           8.77477740    16.77802850    21.56843190
H           8.20883940    17.57490730    22.72414970
O           2.26862290    11.53443150    19.18142320
H           1.41423750    11.45632840    19.60587310
H           2.14716860    11.13001920    18.32239340
O          13.62505050     0.53454640     8.47911260
H          14.54479410     0.79951420     8.48889060
H          13.61650660    -0.31715720     8.91587260
O           6.10425850     9.13518140     1.76760450
H           6.58025460     9.23358730     2.59221120
H           6.78426030     9.15807440     1.09432420
O          12.53085420    16.87847330    23.20430760
H          12.07651620    16.87710950    24.04680820
H          13.21512990    17.54059220    23.30227280
O           3.54538540    13.59436320     9.88044260
H           4.49969150    13.52374460     9.90378090
H           3.26935170    12.90938950     9.27147010
O          19.12669560     7.42894650     7.29165030
H          18.41247370     7.56872940     6.66989470
H          19.57045750     8.27563000     7.34097530
O           5.03730440     3.06563450    14.20141890
H           4.79742810     2.32101250    13.64984800
H           5.95503810     3.23535040    13.98883150
O          15.84619620    24.85831070     3.41679720
H          15.59726240    24.37418750     4.20412730
H          16.57720760    24.36052320     3.05065160
O          10.03097920    18.09555440    20.11601260
H          10.48744680    17.26056670    20.01273920
H          10.68686290    18.68206210    20.49291610
O           7.47865490    17.71612740    13.55741210
H           8.21961690    17.66444590    12.95364280
H           7.44384570    18.63719940    13.81556800
O           5.28214500    13.76001360     2.04062130
H           5.97999860    13.42342660     1.47853430
H           5.25443220    14.69810490     1.85234460
O           8.34177880    20.23551370    14.15590380
H           8.65043930    20.27663040    15.06103990
H           8.82184980    20.93157770    13.70728590
O           1.32972100     7.38938710     2.57069250
H           2.11670640     7.75907140     2.97096730
H           1.17510370     7.93404670     1.79889550
O          11.47218610     4.11098340    10.85335350
H          10.88439270     3.35800100    10.91457370
H          11.91401670     4.00208380    10.01123810
O          15.93208980     8.65305040    20.57870860
H          16.67533680     8.30141260    20.08864020
H          15.59261320     7.90427400    21.06893350
O          18.55935670    20.73453140     6.51608130
H          18.30260850    19.95834160     7.01392030
H          19.29776760    20.44273760     5.98144390
O          12.00766940    24.03577800    25.81512070
H          12.02727990    23.09360120    25.64733890
H          11.38457970    24.38008880    25.17524530
O          14.70069600    17.80654910     8.75885300
H          14.16596790    18.59828760     8.70014100
H          14.09164330    17.09186170     8.57308290
O          10.62365060    16.88902470     8.22023680
H          10.39556030    17.59504700     7.61547230
H          11.49232770    16.60296630     7.93774560
O          11.13305950    24.85481830    11.69949440
H          12.08836650    24.88646510    11.64833160
H          10.85830400    24.52269360    10.84483910
O          12.93379690    21.03193470    24.80519490
H          13.05688950    21.74214940    24.17537310
H          12.08105280    20.65886690    24.58185580
O           1.47718190     1.08086720    18.35949130
H           1.98306800     1.03204520    17.54836460
H           1.59977670     0.22495210    18.77011490
O           1.99288130     9.75888820    11.38548470
H           2.59511520    10.14105420    10.74713230
H           1.27566480     9.40770630    10.85774900
O          19.37146190    17.87892340    19.42975230
H          20.26429750    17.78323550    19.76129340
H          18.88438030    17.16687970    19.84445380
O          11.90982060    24.35374450    19.06430440
H          12.39223100    23.72400090    18.52864070
H          10.99652770    24.24301340    18.79998210
O           1.93857720    24.44067000     3.65915580
H           1.81482650    23.70428090     3.06028370
H           1.34191850    24.26129910     4.38582940
O           4.13170860     7.80647660     3.30227230
H           4.18138500     6.95057490     2.87660030
H           4.60437300     8.39466950     2.71333310
O           0.91183610     9.61407760    17.05054660
H           1.04483370     8.86259560    17.62831690
H           1.14119670     9.29008390    16.17954060
O          17.78050040    15.13243010     7.56646390
H          17.33970070    14.39430430     7.14563420
H          18.66978260    15.11357400     7.21283580
O          19.97393230     2.35298850     2.28995040
H          20.19628140     1.52918280     1.85620320
H          19.35308460     2.10334400     2.97439050
O           0.41247130    12.65331170     8.62766360
H           0.15731960    13.54047870     8.37455560
H           0.08366160    12.55526730     9.52125360
O          13.06097700    21.87472720    12.18176270
H          12.13366510    21.64398380    12.23726750
H          13.52071480    21.09646420    12.49668980
O           6.21492200    20.08244710     0.57045660
H           6.61902380    19.21694180     0.50853970
H           5.49596310    19.96720500     1.19178550
O           5.51815130    21.85005570    10.38152890
H           6.21838330    22.49615290    10.47353360
H           5.83805850    21.08127780    10.85362240
O           0.32838770     0.38269830    23.85382650
H          -0.19202470    -0.14760940    23.25035670
O          17.95007710     7.46649930     3.71644400
H          18.63807300     6.84536930     3.95538430
H          17.87102320     7.38249970     2.76621960
O           2.53457240    13.23761560     2.99485250
H           2.19336630    13.71460820     2.23835520
H           3.48314020    13.23227210     2.86670260
O           1.76874110    23.03552630     1.22753250
H           1.53893420    22.16531560     1.55334480
H           2.13763000    22.87628360     0.35874380
O          18.93314930     8.41371250    11.82626720
H          18.96399120     9.37041570    11.82671360
H          19.12036900     8.16761880    12.73214630
O           4.28610610     4.60700650     3.00457620
H           4.76508240     4.18561460     3.71818830
H           3.72545220     3.91611170     2.65164180
O          15.16687010     2.21338390    15.20448780
H          14.97569940     3.12787180    14.99616720
H          14.31171800     1.82687460    15.39305590
O           8.97232530    19.79924010     8.55002500
H           8.94543460    20.19116400     9.42289640
H           9.07273390    20.54335590     7.95635460
O           7.08111760    17.59134290     1.10185440
H           6.26250410    17.10390660     1.00960550
H           7.56567190    17.11969180     1.77933900
O          11.48058220    15.61765580    20.70880130
H          12.35391810    15.55278300    20.32239530
H          11.63856790    15.88440230    21.61440470
O           2.52333740    21.09833340     4.51334240
H           2.33382530    20.76329230     5.38973470
H           1.81377690    20.75822640     3.96828890
O          15.38594440     6.85047530    23.13971140
H          15.13379190     6.13090750    23.71839330
H          14.55531410     7.23556230    22.86043930
O          17.05731580    13.21068000    15.62019630
H          16.99337770    13.33847430    16.56666950
H          16.49700740    12.45531850    15.44210910
O          17.38647080     1.87614720    18.71142010
H          16.92645450     1.45576820    19.43798640
H          18.18074800     2.23549250    19.10667800
O          14.21523000    24.36716270    10.83649060
H          13.81349280    23.51954460    11.02722930
H          15.08418270    24.31537060    11.23457530
O          17.42397310     3.76149150     5.88220450
H          16.50223920     3.63083340     6.10483980
H          17.85074620     3.93510270     6.72122530
O          20.24335860    14.63546850     6.82742070
H          20.08869930    15.03017900     5.96921590
H          21.05608750    14.14117240     6.72075800
O          16.27514080     1.13249290     8.88622280
H          17.10938840     1.28338130     8.44181630
H          16.46529200     1.28702870     9.81152920
O          10.08654790    18.91173930     3.52904130
H           9.22570510    18.55464940     3.74737500
H          10.12328820    19.74850460     3.99240490
O           1.54749820    13.64055440    14.50923820
H           0.60112520    13.50288390    14.54995820
H           1.71314190    13.89901640    13.60260110
O          16.16769790    17.96010020     2.45092730
H          15.74074170    17.70922850     1.63177930
H          16.73249440    18.69485280     2.21139570
O           5.73691610    22.05228420    22.23329350
H           5.17844440    21.75123600    22.95002940
H           6.49760150    21.47199060    22.26240160
O          19.90894320     2.81066540    19.38458440
H          20.11822320     2.52093170    20.27255250
H          20.53362660     2.34614800    18.82760430
O           8.90287590    14.66596510     5.39271690
H           8.14109040    14.53384880     5.95703840
H           9.40855600    13.85793210     5.47991040
O           7.73715780     4.59049220     8.04609300
H           6.80511710     4.59888270     7.82823610
H           8.17904090     4.76242640     7.21458290
O          13.75935840     7.80688190    14.64242080
H          12.99153900     8.24798770    15.00589080
H          14.47909930     8.06577970    15.21790030
O           8.10608960     9.99262240     7.22241350
H           8.55899620     9.15092370     7.17092470
H           7.39178040     9.84275630     7.84171440
O           8.85409830     7.50499730     6.35586310
H           7.99737930     7.25437070     6.70147750
H           9.33795640     6.68136690     6.29465440
O           2.82355930     6.32818460     5.74232150
H           2.51624870     5.93562940     6.55944590
H           2.97605180     7.24756150     5.96078060
O           1.43374590    16.55705070    20.37965770
H           2.25804850    16.11667440    20.58660130
H           0.81057310    16.21154020    21.01880460
O          10.91686150    20.21585270    12.11737540
H          10.07145310    20.53015520    11.79685970
H          10.75812820    19.30248260    12.35568520
O          19.84707640    10.35371880     7.50980040
H          20.39256860    11.07511710     7.82325790
H          19.50483130    10.65967460     6.66986510
O           0.30062250    13.26372530    11.43993000
H           1.13293980    13.62517830    11.74460980
H          -0.22003600    14.03035930    11.20030310
O          17.31553080    20.23448370    15.68273640
H          17.49474140    21.17093660    15.59805200
H          17.88263700    19.94579700    16.39777570
O          20.25067520     5.03484680     7.37389900
H          19.89642140     5.92175250     7.30960320
H          20.49221040     4.80773120     6.47594980
O          11.43699840     9.07458210    15.91780950
H          11.27006440     8.13457010    15.84893700
H          12.03889370     9.15738960    16.65746880
O           5.52134370    23.49196620     3.38610700
H           6.41684820    23.67231560     3.67207530
H           5.32747270    24.18470000     2.75462910
O          19.35820200    23.85969920    22.30764010
H          19.00813480    23.23448940    22.94230270
H          19.57593540    23.32760240    21.54233170
O           3.10953660    14.15554710    19.65272140
H           2.95456550    13.23123930    19.45811650
H           2.45563150    14.62269970    19.13271330
O          12.65091320    22.59821510     8.72192290
H          13.31790450    22.10289960     9.19733520
H          12.54952910    22.12945370     7.89354090
O          14.43720150     4.76480770    14.72074410
H          14.60531140     5.70645280    14.68503280
H          13.62795160     4.64694740    14.22329620
O           1.47847700     0.48432730    15.22350980
H           1.53872630     1.35438220    15.61798000
H           1.91476580     0.57471170    14.37633040
O           4.70915370    18.10195540    23.77107240
H           4.47729350    18.56432150    22.96565820
H           3.88505150    17.72091870    24.07421880
O           2.48823740    20.58404730     7.07100820
H           3.09493300    20.21824260     7.71470020
H           2.35359790    21.48803140     7.35547110
