1685
Conf 1. Box X: 22.806 0.000 0.000 Y: 0.000 26.975 0.000 Z: 0.000 0.000 27.755
N          13.61237910    13.41844080    11.79037280
H          13.55065160    14.22533320    12.41291430
C          14.86320300    12.66583540    11.65033530
C          14.70316510    12.02160170    10.30630300
C          13.67087550    12.66480730     9.65974330
C          12.93699650    13.56710150    10.59490590
C          15.72330470    10.94568730     9.88482670
H          15.16357610    10.26376440     9.22112370
H          16.02064900    10.39819620    10.79623130
H          16.60791590    11.31061840     9.33427620
O          15.73628040    12.70451640    12.48777770
C          13.16403960    12.39610000     8.34155080
H          12.22401430    12.90840240     8.10214230
C          13.80930710    11.76327230     7.33486270
H          13.38294790    11.85080240     6.33117390
H          14.86262700    11.47338960     7.39261530
C          11.77147480    14.39930820    10.39679240
H          11.27741430    14.47278120     9.42010590
N          10.95903780    14.73789120    12.74811740
H          11.47253990    13.88883300    12.97558590
C          11.01504330    15.07741070    11.42126660
C          10.06342320    16.13953400    11.21710590
C           9.44392590    16.45919230    12.42976950
C           9.98521040    15.49931620    13.43639950
C           9.98915670    16.88423730     9.96084500
H           9.69339560    17.94143680    10.07776170
H           9.35016440    16.38933940     9.20879360
H          10.97630690    16.88866230     9.46653940
C           9.70459750    15.33241940    14.75145530
H           8.86893080    15.96010490    15.08144000
N          11.35733030    13.69854830    15.59119220
H          12.10752490    13.91532610    14.93808750
C          10.36351010    14.58693790    15.80138590
C           9.94417570    14.45051670    17.15525820
C          10.87483220    13.53274630    17.78841210
C          11.71763040    13.07988070    16.76909070
C          10.75058170    13.20437910    19.20199010
H           9.69282340    13.02312950    19.46104810
H          11.15460590    14.04549690    19.79199030
H          11.25585370    12.27002810    19.50283430
C          12.72837070    12.03966240    16.93015860
H          13.03419490    11.78050900    17.95022010
N          13.18978310    11.17955880    14.60471530
H          12.47106170    11.67322830    14.07351110
C          13.33419420    11.21754930    16.01296620
C          14.39251520    10.17431740    16.39867590
C          14.78911780     9.56738950    15.25883290
C          14.04298400    10.21313950    14.09799190
C          14.81987570     9.78539750    17.84743310
H          15.14996150    10.73594950    18.30165290
H          15.51549530     8.95721720    18.06889530
H          13.89732740     9.43714430    18.34386060
O          13.99364090     9.83331780    12.97138400
C          15.69864850     8.44835850    15.17412570
H          16.09767530     8.08213520    16.12695120
C          16.14040760     7.93478160    14.01410100
H          16.93094250     7.19179200    13.87318800
H          15.80550190     8.33998970    13.05468370
C           8.88318250    15.26839920    17.82740970
C           7.52849770    14.49655820    18.05430220
C           6.51407240    15.55395410    18.40480420
O           6.00765800    15.57347010    19.58360670
O           6.00028420    16.19645690    17.54878040
H           8.66747470    16.08484840    17.11628720
H           9.28529360    15.77727600    18.72081180
H           7.70522120    13.80769440    18.89872360
H           7.08975410    13.93709850    17.20971110
H           6.47558210    14.89711670    20.10353090
C           8.46145440    17.53941920    12.69829370
C           7.21669960    17.51823620    11.87707140
C           6.18393330    16.37043190    12.04123880
O           6.39567180    15.19013500    11.95178220
O           4.92395020    16.83420560    11.84309960
H           8.26995660    17.66740420    13.77799990
H           9.01099210    18.47797390    12.50871660
H           6.63954540    18.45611000    11.95518680
H           7.46275520    17.59609600    10.80365940
H           4.87128930    17.74452780    12.18261530
O           1.69583390     0.59466860     4.21618460
H           2.18583560     0.47241850     5.02931690
H           0.80906280     0.30053060     4.42439170
O          17.50405500    26.28194050    23.00801280
H          16.68247220    26.75603100    23.13636020
H          17.24344830    25.45838740    22.59560970
O           3.44854520    20.74364280     5.00999450
H           4.30799960    20.40285490     4.76213740
H           3.17926670    21.27974320     4.26412770
O          11.67864800    17.67582510     2.56754660
H          12.08777050    17.62094120     3.43116550
H          10.93378450    18.26390840     2.69232010
O          12.91364000     7.24589400     1.72109150
H          13.70238590     7.71458670     1.99392910
H          12.69480710     7.62145660     0.86827450
O          17.90452960    17.66482930    16.89538570
H          17.63212390    18.57951350    16.82204060
H          17.18290710    17.23617360    17.35554500
O           8.44506260     4.22910930     1.22953060
H           8.22542190     3.29776550     1.20527910
H           7.68683820     4.66423650     0.83966950
O          23.13440510     2.17940020    21.23143390
H          22.38644220     2.77669220    21.22637750
H          22.74386020     1.30620600    21.19623760
O           7.82326890     2.72970180    15.24965860
H           6.98336790     2.96329000    15.64492610
H           8.28096200     2.23892950    15.93222050
O           7.67223740    13.04444980    23.80935290
H           7.65093420    12.08864120    23.85635190
H           7.14927860    13.33275130    24.55743600
O           8.26518060     5.31876610    11.99730680
H           8.96461680     5.20591310    11.35365680
H           8.34681320     4.56009630    12.57522390
O          22.38992310    19.19143870    26.49713710
H          22.07034680    19.83773040    25.86752700
H          21.75604060    19.22137830    27.21374510
O          19.45952420     2.64463780    16.59553340
H          20.21993640     2.90387800    16.07514950
H          18.79088400     2.42158480    15.94792370
O          20.40760040    12.96613410    24.69173050
H          20.38591190    12.28295420    24.02163510
H          19.96909710    12.57466030    25.44717410
O           5.74483870    19.56334500     3.74648930
H           5.28962900    19.89891820     2.97421530
H           6.56288720    19.20272830     3.40446450
O          20.36202810    22.17440030     4.33360390
H          20.46724320    21.24743080     4.54781720
H          20.29940990    22.19393730     3.37865420
O          12.31789590    23.42393110    10.33098510
H          13.09621910    22.95675090    10.02736380
H          12.55226420    24.34948160    10.26272870
O          14.11108110    25.47104640     2.30312230
H          13.79477020    25.21490290     3.16947630
H          14.03525450    26.42518420     2.29290890
O          18.67489240     1.68385770     7.06674580
H          17.92595290     1.17623780     6.75426670
H          19.32307240     1.61038760     6.36624620
O          18.77191540     0.16466490     1.91757270
H          17.88829610     0.41768140     1.65030460
H          19.00933840    -0.54400470     1.31953500
O          17.01174350     0.99781010    17.92597960
H          17.29375460     1.67271110    17.30855560
H          17.67981150     0.31579130    17.85692790
O           8.56086730    26.04151540     6.32052610
H           9.34477620    26.53300090     6.56580540
H           8.36730580    25.50140570     7.08671570
O           3.18350860    24.85220720     2.54400990
H           3.77067830    25.48370930     2.12847590
H           2.30640580    25.13303380     2.28313180
O           0.84634290    12.52839180    22.79153820
H          -0.10010740    12.38946250    22.82565310
H           0.94494900    13.46550460    22.62322810
O          11.03553010     3.77489450     2.60482760
H          10.24049380     3.80999350     2.07292910
H          10.78439710     4.17448280     3.43759040
O          19.87075040     4.06124540     0.52811270
H          19.15448000     3.58760050     0.10520490
H          20.44484140     3.37442090     0.86711480
O          16.93737220    10.70935730     4.03601360
H          17.14468570     9.93090530     4.55299000
H          17.43326190    10.59731770     3.22498200
O          15.02560040     1.24743340     9.15483670
H          15.24644660     0.99311080     8.25885770
H          15.84668160     1.15768170     9.63857460
O           8.51705930    25.23908420     8.71614930
H           7.98580550    25.23640440     9.51238630
H           9.26392940    25.79886820     8.92841720
O          21.64236450    23.01847270    13.62132840
H          22.52307890    23.38864900    13.68083950
H          21.69811060    22.18996240    14.09745410
O           3.23647950    21.69584470    20.92611120
H           3.63440590    21.00466540    20.39681240
H           2.82148620    21.23180770    21.65321730
O          13.20436000    17.45847700     4.79512210
H          14.13678740    17.24253080     4.78176590
H          12.83620360    16.88871000     5.47044370
O           9.40059660    21.50201990    13.92873000
H           9.83358380    22.13285060    14.50389100
H           9.85146900    21.59435650    13.08943370
O          21.88724140    10.93022820     0.58911450
H          22.41694260    10.67167000     1.34329920
H          21.39652820    10.14117720     0.35926850
O          21.82176210     3.65396090    15.65769200
H          21.96577640     4.51635890    15.26812740
H          22.56332780     3.12856360    15.35724450
O          19.12976840    24.04962160    25.01223180
H          19.08885770    23.34818840    24.36219220
H          19.96329690    23.91106610    25.46196940
O          11.34173770    11.01940250     3.42600230
H          11.45294760    10.22867110     3.95383620
H          11.26852040    10.69894310     2.52701540
O          20.86551860     3.47437930     4.11479660
H          21.52486230     3.66457720     3.44747230
H          20.68450550     2.53996060     4.01317500
O          13.65948580     5.66722730    26.41470720
H          14.48229500     5.62902020    26.90230940
H          13.86122610     5.26013990    25.57220270
O          22.41106610    11.00514130     8.27132420
H          22.96119880    10.22466370     8.33794690
H          21.66181560    10.72585010     7.74515630
O           4.26719380    19.63539310    12.53443530
H           5.02656360    20.14723210    12.81302260
H           3.51417710    20.18057060    12.76242450
O           4.30585100    17.41678620     4.29217150
H           5.00381760    16.94707110     4.74872780
H           4.69909290    18.25578880     4.05203250
O           9.88451580    26.05798910    12.10476110
H           9.92908290    26.38882830    13.00186350
H           8.94794850    25.96693040    11.92931370
O          15.65266420    25.67943190    17.08350560
H          15.87181470    26.56306840    17.37912180
H          16.48002050    25.32303810    16.75993350
O           4.20598410    -0.09460000    18.77622030
H           3.54769680     0.07671040    18.10276410
H           3.93234990     0.44151370    19.52049060
O          18.19187740    14.62318520    23.88849260
H          17.33780100    14.63594720    24.32048990
H          18.51742940    13.73387620    24.02769470
O          10.53705980     5.24347450    14.34359360
H          10.53336910     6.02023460    13.78425220
H           9.63355260     4.92816400    14.32155610
O           3.17820240    25.84817890    14.77272220
H           2.76516320    26.44941710    15.39251330
H           3.77896860    25.32875630    15.30705640
O          13.31376930     5.24009660     7.62181470
H          12.79663560     4.74612760     6.98557570
H          13.60559750     4.58377500     8.25451560
O           0.57979180    18.82336810     1.38690260
H          -0.29493920    18.53760340     1.12343140
H           0.45660860    19.72272110     1.69058010
O          13.24106500     1.16319540     1.78601770
H          12.51129340     1.57952280     2.24464300
H          12.82673840     0.65221380     1.09070280
O          19.89699550     8.98089220    27.66388510
H          20.07666590     8.06352230    27.45801160
H          19.65435030     9.37166310    26.82444760
O          21.09161570    20.35237120    20.59398270
H          20.83259200    20.13412670    19.69871330
H          20.30832860    20.18394660    21.11774440
O           2.39796810     0.42572850     6.95725150
H           3.27118090     0.04171770     7.03640840
H           2.51996210     1.34723540     7.18566700
O           5.86709590    22.23620220     6.24757770
H           5.17428870    22.47811700     5.63298130
H           5.52681350    22.49204060     7.10489080
O          18.00586700     9.11257550     1.44786100
H          18.28100970     8.28825000     1.84912900
H          18.74450490     9.36829190     0.89536410
O           8.59841160    22.89788820    25.83007620
H           9.16895480    22.46314240    25.19627380
H           8.32619860    23.70490070    25.39319800
O          21.07614330    10.63501070    22.27583120
H          20.39245410    11.27364250    22.07347110
H          20.78168300     9.82738020    21.85481070
O          21.55978970    12.72141360    18.74041370
H          21.03612140    13.15229890    18.06488420
H          21.01742360    11.98900320    19.03306770
O           1.69859860    20.01618770    16.06973650
H           1.73455120    20.85991480    15.61911200
H           2.02862720    20.20011900    16.94921490
O          13.22218990    24.92440220    17.60734940
H          14.13792130    25.12119480    17.41001700
H          12.88613320    25.72573470    18.00880050
O          18.18980600    19.83760450     7.38844780
H          17.37342830    19.34111400     7.33136080
H          18.03899000    20.61000250     6.84357550
O          20.26285550    18.51999470    18.37598990
H          20.96211430    18.19448850    17.80914310
H          19.47575950    18.47939870    17.83279420
O           5.09062290     3.34807090    16.72850800
H           4.61915590     3.67251370    15.96124840
H           4.51720140     3.55401210    17.46675300
O           4.49836250    11.07359790     4.53790190
H           4.59390450    11.21865370     3.59659270
H           4.32642840    11.94362350     4.89807800
O          12.40306570    25.02587700     4.29187870
H          11.88575650    25.64642140     4.80524920
H          12.24853320    24.17988970     4.71218110
O           2.98733780    17.67027090    21.78116040
H           2.75448390    16.94336320    21.20356370
H           2.22063520    18.24313740    21.76621630
O           8.07630920     7.28779550     2.32434960
H           7.66250230     7.28697920     1.46121860
H           7.54477690     6.68592410     2.84536390
O           9.79647830    18.56290250     4.41022010
H           9.42953870    17.69877620     4.59696580
H           9.21202090    19.17348290     4.85947990
O          13.53567980    15.19787310    14.60027500
H          13.49008660    16.14463810    14.46690180
H          14.45899010    14.98179530    14.46973420
O          12.07214740     5.51016090    16.77488140
H          12.09747890     4.56785730    16.94117930
H          11.66168790     5.59047750    15.91389080
O          17.26692960    21.14657210     3.28444650
H          16.62950900    21.28242110     2.58339520
H          18.10487370    21.40290640     2.89925360
O          13.40976140    19.83992770    26.34679220
H          14.28837390    20.20176120    26.23125460
H          13.41301440    19.48187070    27.23449520
O           6.81424900    26.84215930    17.26276020
H           5.99083710    27.10090450    17.67661480
H           6.81924440    25.88646700    17.31623840
O          11.47780230    24.28115460    22.67434500
H          12.27861020    24.53560070    22.21587180
H          10.78718950    24.79132650    22.25124930
O           2.39889030     7.09441710    17.35787010
H           2.58741260     7.82006220    17.95295910
H           2.11702230     7.51702640    16.54658510
O          22.44555850    21.23664280     8.21991060
H          22.20232580    20.76772880     9.01815320
H          22.67346570    20.54666710     7.59683510
O           9.14355850     1.01506640    17.18119050
H           9.51082420     0.94610380    18.06243520
H           8.22229190     0.77751270    17.28639030
O           3.34752920    24.33421520     5.38234420
H           2.65755150    23.75041960     5.69753550
H           3.06241770    24.59033390     4.50522040
O          13.16192530    11.65393730    21.69035720
H          12.68908020    11.91215040    22.48154450
H          12.99371150    10.71538450    21.60636710
O          17.82719800    17.55033680    10.21294020
H          17.78335950    17.86671260     9.31060030
H          16.93902400    17.24927140    10.40460590
O           2.74400210     6.13146070    22.63829040
H           2.39901710     5.46273570    23.22991750
H           2.15650630     6.10909410    21.88292120
O           1.25592490     8.29951570    14.78979680
H           0.52305870     8.83428290    15.09502220
H           1.41095230     8.59527110    13.89273070
O          17.39590070    12.14335160    25.65398220
H          16.70924760    11.66646670    25.18780900
H          18.18415450    11.61607650    25.52410130
O           2.13076850    16.67159650     0.42153620
H           3.06647090    16.79429630     0.58165580
H           1.72757220    17.48619840     0.72168380
O          13.38224410    20.92069240     2.65693350
H          12.71195220    21.18647380     2.02740880
H          14.21148490    21.11930470     2.22202610
O          22.03042600    10.35823540    14.58438110
H          21.73441510    10.77508450    13.77515410
H          21.24234770    10.29647540    15.12414930
O           2.08514570    17.42035290     5.64838890
H           2.83777880    17.77364540     5.17408940
H           2.46729350    16.96236610     6.39701560
O          13.71751980    23.03463940    14.20979310
H          14.53792480    22.88485720    13.73996930
H          13.54761980    23.97053530    14.10271640
O          20.08125310     9.50564960    12.01706120
H          19.75055120     9.83984090    12.85083960
H          20.23872380    10.28930570    11.49045180
O           1.15178940     2.68830180    14.47635460
H           1.74798180     3.43577080    14.52192880
H           0.85763440     2.67173650    13.56562420
O           6.77959440    10.01835920    14.40585140
H           6.44020840    10.11140920    13.51568790
H           7.16788670     9.14363960    14.42392160
O           3.16944100     1.83749370     2.21852760
H           2.66632150     1.34771370     1.56797480
H           2.66302750     1.75277400     3.02636410
O          19.28357700    22.42536930     1.69420600
H          19.97877310    22.26425170     1.05625990
H          19.10021400    23.36168860     1.61728840
O          15.47943590    21.97648810     0.61680250
H          16.02989200    22.63955690     1.03341750
H          15.57992360    22.13685800    -0.32150190
O          19.55452730    25.06680300    19.92178730
H          20.27701000    24.44589230    19.82840540
H          18.91600230    24.61062620    20.46989440
O          13.83882620     7.93437050    23.77276040
H          13.24159910     8.32876680    23.13714790
H          13.71292780     8.44812490    24.57052990
O           5.78865050    18.97699740     6.78643230
H           6.08838080    19.31993870     5.94453810
H           6.10182570    19.61319920     7.42939570
O           3.13057110    13.36910340     2.73538950
H           3.14536170    12.42477130     2.57966540
H           3.89529200    13.70138260     2.26525660
O           8.49467850     8.53890320    10.90737920
H           8.95950700     8.70647620    11.72718810
H           9.01324840     8.99036120    10.24141980
O           7.44708060    24.78399090    15.42421340
H           6.78672980    24.48544310    14.79888340
H           7.56350330    24.04462810    16.02088740
O          12.23565100     8.92922310    21.29364970
H          11.33348850     9.03171060    20.99061780
H          12.56637190     8.17249970    20.80968090
O          21.50600810    17.85767560    13.57466130
H          20.94493680    17.54527090    14.28447340
H          21.14650920    17.44861980    12.78747370
O          10.97722050    22.94562340    15.63367460
H          11.31697460    23.17111590    14.76767540
H          11.74149890    22.63057140    16.11622050
O          19.76153760     6.44073920    15.74821850
H          20.66192630     6.12333350    15.67902950
H          19.44057460     6.44911910    14.84647370
O          20.79845050    23.08415990    27.07981490
H          20.38339420    22.49261280    26.45209500
H          21.68074610    22.73108670    27.19438550
O           8.18221470    20.85645870     5.64748950
H           7.35169410    21.26880070     5.88506030
H           8.47396090    21.33511350     4.87160020
O          17.31404500     8.42604160    23.84883500
H          16.90364840     8.89720540    23.12370680
H          16.58064460     8.05106350    24.33642960
O          22.48253630     5.87175230    14.41051860
H          22.66120530     5.71052690    13.48406600
H          23.15798570     6.49418210    14.67992400
O          18.26854130     4.43351220     7.07854650
H          18.10551260     3.56145260     6.71915150
H          18.09340290     5.02933550     6.35015580
O           6.50310130     5.42259740     3.85437180
H           5.78723910     5.89208170     4.28257560
H           6.08662220     4.65292790     3.46657730
O           8.22981450     8.47985460    25.57529640
H           7.30734630     8.27852340    25.41798020
H           8.21352580     9.25967220    26.13013840
O           9.81031800    10.18214320     0.97019130
H           9.92124180     9.23978330     0.84415320
H           9.42049980    10.48902610     0.15159680
O          11.75691800    11.51503850    23.89536290
H          11.18113330    12.19374180    24.24759480
H          11.39698410    10.69566440    24.23492810
O          14.46885300    25.59270670    25.18445010
H          14.30636020    25.20521930    26.04449840
H          13.69455810    26.12874790    25.01310160
O           9.93762210     9.13074400    13.10361860
H          10.35103990     8.29818250    12.87523840
H           9.37671090     8.92262170    13.85081100
O          18.91067500    25.01867680     0.39540650
H          18.27196500    24.95907780    -0.31503600
H          19.71530910    24.65574650     0.02516300
O           5.24628450    25.73794360     6.91246220
H           4.87730310    25.08878900     6.31356140
H           5.14993290    25.34538080     7.78012850
O          16.15355490    19.10799030    -0.19979210
H          15.71781920    19.80084420     0.29651570
H          15.61942390    18.32920840    -0.04347820
O           8.59987260    18.87803080    27.04422380
H           8.81342510    17.96813580    27.25090410
H           8.61878970    18.91723250    26.08801460
O          21.67477610    13.75364210    -0.04866810
H          22.34286120    13.99988460     0.59106570
H          21.74085620    12.80064870    -0.10922400
O           0.28879530    25.77302170     8.17228980
H           0.46140170    26.05215070     9.07147030
H           0.94304730    26.23517610     7.64826870
O           0.62741740    26.82686610    10.55072310
H           1.17380600    26.30304910    11.13664630
H          -0.14510360    27.04291920    11.07299230
O           9.13384250     3.33653900    19.29364780
H           8.22651860     3.36961050    19.59679790
H           9.30115700     4.21123740    18.94273380
O          22.89766310    14.53185940    20.45410920
H          22.57431030    14.11193940    19.65702630
H          22.24591060    15.20444390    20.65180020
O          20.29214290    10.45095920     6.72477910
H          19.35467340    10.50425620     6.53892900
H          20.64099880     9.88481620     6.03629300
O          13.62624930    24.91085240     7.62860970
H          13.82296560    24.05150030     7.25571730
H          14.30375290    25.48659320     7.27400880
O           9.84520150    25.91715620    15.34882350
H           9.65630720    26.80621720    15.64902500
H           8.99968150    25.46947290    15.37894440
O           9.92976190    21.73509220    11.29557420
H          10.04081540    22.23548890    10.48717880
H          10.80336000    21.39475060    11.48851200
O          15.42160030    23.97059250    10.23554040
H          15.87950040    24.79755970    10.38615130
H          15.48902130    23.82797620     9.29142860
O          17.37087630     8.97298910     6.49734780
H          16.54142950     9.03448300     6.97112940
H          17.36204150     8.09696390     6.11168770
O          10.76724050    23.96425250    18.46335980
H          10.90392300    23.74964900    17.54059600
H          11.60484890    24.32704540    18.75150490
O           4.36248590     0.26131980    12.72859950
H           4.31380270     1.21728110    12.72895240
H           3.93312430    -0.00066830    13.54299550
O          21.36570740    23.19098470    20.23151590
H          22.25599290    23.13823130    19.88389400
H          21.05819130    22.28457640    20.24100490
O          15.81696890    15.50369740    25.29555320
H          15.28787900    15.80055710    24.55516820
H          15.18410210    15.35647300    25.99843030
O          14.85357090     4.41847470     4.80405710
H          15.18367770     5.25675730     5.12738900
H          14.79492190     4.53389020     3.85565160
O          16.43616100    16.12387850    21.81440350
H          17.11173250    16.13595960    22.49240680
H          15.61057950    16.13254170    22.29872890
O          18.65165140     6.43590400     2.05263500
H          19.56593130     6.66287470     1.88290720
H          18.69285010     5.58235600     2.48390170
O          18.57988740     8.52194210    18.09945490
H          19.16367340     8.84713460    17.41412540
H          18.44669150     7.59917880    17.88266370
O          16.32082560    26.98148920     6.68304730
H          15.69403550    27.43664930     6.12073610
H          16.84044840    26.44917110     6.08066840
O          11.16625400     4.87407260     5.30318160
H          10.25848010     5.00134420     5.57882210
H          11.44455150     5.73489330     4.99049950
O           4.50038340     4.67777400     9.01447300
H           5.31802560     4.49700780     8.55077270
H           4.75387380     4.72846560     9.93610480
O           1.98725390     0.43857020    27.81432720
H           2.80277990     0.16309660    27.39568140
O          21.93132970    -0.14299560    27.04505730
H          22.33512690     0.71289370    27.18869590
H          21.27264400     0.01346370    26.36838530
O          11.64242550    22.90135000    26.63798900
H          11.67526820    22.27386470    25.91589740
H          10.95670890    22.56611820    27.21560670
O          13.44099040    14.84660820     3.05836650
H          12.64169410    15.34749320     2.89566640
H          14.02215190    15.46164230     3.50582290
O           3.92101840    20.80732920    23.90164760
H           3.55106040    20.86010930    24.78288460
H           4.82967380    21.08959960    24.00605390
O           0.40705950     6.12335160     5.50684360
H          -0.35059000     5.68049760     5.88904760
H           0.48607810     6.93642470     6.00574210
O          11.14893150    26.81968690    27.59948160
H          11.33550830    26.28703880    26.82636640
H          10.95434000    26.18330190    28.28750800
O          13.95405200     9.80202580    26.14779850
H          13.17275910     9.37070850    26.49388890
H          14.68316650     9.27451420    26.47392080
O           0.61835460    25.34783940     1.28391720
H           0.72211630    26.11309050     0.71835930
H           0.60923460    24.60416030     0.68134860
O           6.45796590    26.02063180    20.20070840
H           5.72468380    26.49807930    19.81266980
H           6.12943270    25.12889290    20.31515690
O          14.32926750    21.57733150    21.24622540
H          15.21615890    21.74450680    20.92730710
H          14.21345520    22.19603730    21.96735190
O          22.33666800     4.76058820    12.00645450
H          22.14819340     5.01911310    11.10430530
H          23.04076000     4.11678080    11.92898940
O           5.90331080    17.61156080    15.03480150
H           5.01631450    17.82340810    14.74395560
H           5.86271290    17.66989330    15.98935890
O           3.43268080    16.81074710     7.80547620
H           2.92622350    16.96607210     8.60272600
H           4.34034540    16.75796320     8.10479350
O          22.53234860    25.50580220    19.09248160
H          22.32860570    26.26678660    19.63619420
H          23.28911780    25.10296440    19.51821710
O           2.43777540    17.78529930     9.92094800
H           1.68384810    18.37505340     9.91704940
H           2.54370470    17.53804970    10.83957670
O           8.54891590     5.65071150     5.75445180
H           7.97428700     6.20107220     5.22234630
H           7.99857900     4.91255040     6.01613900
O          20.17840390    11.01167390     3.57629080
H          19.82466320    11.41998770     2.78611450
H          21.12527660    11.00006960     3.43654320
O          15.85532090     3.70202140     1.72129800
H          14.99958710     4.00186490     2.02796630
H          16.07574840     2.97322340     2.30138180
O          16.99925040    25.23914150    26.07697680
H          17.63022990    24.70350650    25.59615140
H          16.22823330    25.26746180    25.51044080
O          18.76414870    12.82350060     1.81886360
H          17.99630360    12.84243870     1.24764850
H          19.47214890    13.17681030     1.28021690
O           5.73222540    23.10317610     8.83918290
H           5.04191300    22.89504430     9.46877190
H           6.46185490    22.53548430     9.08737090
O           2.96167350     2.96803160     7.69133000
H           2.71883650     3.37004920     6.85727690
H           3.66045930     3.52652140     8.03194620
O           3.60129810    12.17216210    25.17741580
H           4.13814740    12.41538910    24.42318340
H           3.33505890    13.00761510    25.56129840
O          17.70660400     5.85480360    17.70544820
H          16.75814440     5.75538680    17.62315560
H          18.04087070     5.70371010    16.82132720
O           6.89391330    21.01673130    23.66293330
H           7.17762570    21.46138570    22.86417200
H           7.45147130    20.24048420    23.71587180
O           0.94762690     4.65264650    24.29121020
H           0.01563430     4.70355080    24.07900810
H           1.00591350     4.97111650    25.19199370
O           9.75272750    11.89009950     9.62657550
H           9.14584160    12.26630880    10.26406100
H           9.28440860    11.13754560     9.26522250
O           9.61403470    19.76981740     7.86195090
H           9.20566560    19.98596190     7.02365020
H           9.82313920    20.61839490     8.25236510
O          13.49848840     8.15531730    10.68223480
H          14.27939890     7.64607000    10.46526050
H          13.79362300     8.77306460    11.35120010
O           2.35078120    11.25685790    13.72945980
H           1.55226300    11.51101400    13.26685330
H           2.89859270    12.04157160    13.71057130
O           1.65301970    25.54454800    12.58721540
H           0.84200750    25.79514500    13.02958680
H           2.30528810    25.50585940    13.28670120
O           5.00772090    17.00805660     1.13202690
H           4.83980940    17.24208070     2.04486350
H           5.21936420    17.83907130     0.70675830
O          10.33976940    15.88240910    25.95475010
H          10.77518650    15.03103160    25.91232110
H          10.04506300    15.95573330    26.86249730
O          10.60326580     1.20028420    19.56384090
H          10.06221580     1.98489260    19.65264130
H          11.20974920     1.24262930    20.30317690
O           6.68463130    25.50386430    10.95499230
H           6.44556240    25.99683950    11.73988340
H           5.98707580    24.85567090    10.85755060
O          21.99995420    20.17295460    14.73666380
H          21.66151240    19.35671810    14.36863330
H          22.83838840    19.92930600    15.12895580
O           1.60838200    13.19134810     9.37584880
H           1.58450390    12.79917050     8.50300410
H           1.02793380    12.64103220     9.90164850
O           5.42556760     2.90974780     3.03721210
H           5.86397740     2.13597850     3.39120360
H           4.58225440     2.58421680     2.72243330
O           6.74251370     7.64464430    12.74437900
H           7.29216960     6.93173360    13.06975360
H           7.19722560     7.96042390    11.96351240
O           7.77097890    19.14535710     1.93099330
H           7.41916850    19.96969990     1.59495950
H           8.53276250    18.96749310     1.37937380
O          22.47575000    25.70994000    14.46477510
H          22.60058210    25.21900180    15.27695080
H          21.63907620    26.15965840    14.58293720
O           9.30885120     5.66184950    25.23353390
H           9.71241000     6.34255840    25.77205850
H           9.43347930     5.96314190    24.33357620
O          15.21589570    22.26869390    12.33790590
H          15.04483320    22.77555080    11.54413990
H          16.16583820    22.30968090    12.44818690
O           6.67705920    13.98122690    14.26408770
H           6.73066330    14.29780480    13.36234660
H           5.84974480    13.50117590    14.30061720
O           5.76297950    18.32899480    20.75864220
H           4.86999230    18.16452220    21.06155200
H           5.96271510    17.58707810    20.18776890
O           2.89527010    23.24946210    23.58874510
H           1.93865470    23.27407070    23.61139300
H           3.10991640    22.31767650    23.54476360
O           7.16373830    21.38552090    11.37267680
H           8.06500630    21.41609760    11.69363780
H           6.71315190    22.07680320    11.85778810
O          12.25263120     1.43486380    21.54309460
H          11.96260930     0.92389600    22.29876140
H          13.20514390     1.34026790    21.54131320
O           5.63562200    26.07859230     1.02330280
H           5.96930890    26.96142580     0.86363770
H           5.41965100    25.74317170     0.15319850
O           7.72370340    10.86292740    26.81321530
H           8.03248600    11.57643800    27.37159540
H           6.99925040    11.24364190    26.31676860
O          15.72294900     6.42433120    22.49118230
H          16.33356670     6.82455110    21.87215040
H          15.17560670     7.15015460    22.79089740
O           3.40008710    22.20783810    26.62776570
H           3.45526100    23.15349010    26.49018480
H           4.31148240    21.91892240    26.67379380
O          11.31979180    10.30312250     6.86528970
H          11.34994700     9.40007880     7.18125720
H          11.95074270    10.76981640     7.41331390
O          10.81151200     4.92900320    10.33752160
H          10.37842560     5.42697480     9.64420220
H          11.39885900     4.33274890     9.87304780
O           2.97100420    14.61247540    11.29546170
H           3.64563250    14.96194930    10.71324350
H           2.42223810    14.07084560    10.72825530
O           6.07997320     7.64672520     9.41638280
H           6.67709540     7.70133830     8.67026230
H           6.64910700     7.47473670    10.16654210
O           0.15694310    19.21166230     6.65085320
H          -0.43950200    19.24965290     5.90316300
H           0.87091620    18.64476780     6.35912420
O           5.99685290     7.93977880    19.29126740
H           5.08021070     8.14334580    19.47716710
H           6.42218210     8.79428580    19.21953770
O          18.13434220    15.79351710     5.95247460
H          18.67639540    16.57837870     6.03249650
H          18.74497410    15.10708140     5.68383880
O          22.37958340    23.86090470     5.09551530
H          21.74784470    23.22698020     4.75599100
H          22.97804830    23.33958240     5.63057900
O          22.84915540    11.56165220    11.94346050
H          22.26397320    12.29578880    12.13010410
H          22.52950480    11.20530610    11.11456110
O          14.00724120     8.02409930     5.60775660
H          14.72427370     7.41014910     5.76638220
H          13.55096630     8.08153340     6.44724850
O          16.40384860     8.46830460    26.93536570
H          16.56293300     7.54404210    26.74388690
H          16.87655640     8.62850670    27.75213620
O           7.07704540    11.81975270     6.39510630
H           6.40775110    12.46262840     6.62959960
H           6.60206990    10.99096970     6.33389000
O          13.24903580     6.57418110    20.33912470
H          14.15578840     6.35200640    20.12777520
H          12.91149430     5.79997780    20.78957750
O          14.13764950    17.93357280    12.49368860
H          13.62633900    17.69588280    13.26718520
H          14.89804650    18.39848520    12.84280780
O           5.75542070    24.75926210    25.94290540
H           6.41712760    25.10828400    25.34577940
H           5.94454380    23.82204630    25.98861690
O          19.08399010    19.39404680    22.03860280
H          18.38308530    19.02176480    21.50346570
H          19.12771610    18.82400700    22.80630870
O          20.54050640     2.75813560    25.24202160
H          19.89654160     2.09600330    24.99077610
H          21.05087090     2.34397390    25.93788720
O           0.29499990     2.86900780     8.77829270
H           1.21450970     2.98531700     8.53911590
H           0.01165940     3.73584060     9.06906890
O           4.50087260     1.50616810    21.72997090
H           3.60934900     1.80661560    21.90645980
H           4.50231930     0.58815740    22.00105290
O          18.97540090    21.97711560    23.20907970
H          18.56307980    22.49511910    22.51777840
H          18.57557870    21.11100200    23.13019370
O           3.51288580     9.00099560    19.27255060
H           2.78914810     9.29122070    19.82771300
H           3.92910840     9.81129360    18.97859570
O           9.91532140    22.02791790    23.72738840
H          10.12928390    21.31488610    23.12569240
H          10.49810030    22.74207120    23.46934700
O           2.52142600    21.30399700    10.05067160
H           3.07952190    20.70420270     9.55568980
H           1.65523120    20.89715770    10.03018670
O          12.85404210    25.71873280    20.49837300
H          12.74935630    26.54553790    20.02755740
H          13.74848460    25.44163700    20.29982380
O          19.81668850    17.85151860     6.26667690
H          20.21578030    18.26409910     5.50069050
H          19.37080760    18.56745340     6.71928790
O           9.40725140     6.54316660    22.19286160
H          10.16069030     6.79239990    21.65765570
H           8.72150040     6.33425280    21.55856510
O           0.45340520     5.70308540    21.15029720
H          -0.03598900     5.59680890    21.96603780
H          -0.18431590     5.51388120    20.46200750
O           0.91643980    24.95068740    26.28257370
H           0.12829480    25.40405080    26.58177380
H           1.35160040    25.58063320    25.70808790
O          10.32376670     0.04193090     9.34740450
H          10.74403000    -0.20516900    10.17114730
H           9.80521200     0.81625770     9.56592560
O           1.09522800     8.38424680    26.85922810
H           1.69742270     8.38049320    26.11519810
H           0.23421750     8.53647610    26.46971700
O           3.94905730     7.52183960     2.21932480
H           4.36503790     8.00124740     1.50283270
H           4.44762990     6.70727870     2.28373650
O           6.12821960     7.29128030    16.58346180
H           6.21443560     7.46010830    17.52170180
H           5.33540150     6.76033740    16.50750160
O           2.70600200     8.76676180     4.35825540
H           2.90638040     8.40635010     3.49443600
H           3.06507180     9.65380380     4.33685110
O          15.58791260    25.73351100    19.79397960
H          15.79759030    25.74501040    18.86009980
H          16.06711960    24.97959330    20.13778310
O           9.95334050    14.31115060    22.58074380
H           9.20882420    13.76997660    22.84353070
H           9.58977890    14.92513560    21.94271470
O           7.69102100    12.89571670    11.18758390
H           6.92903330    12.50723930    11.61734010
H           7.67636870    13.81379800    11.45803260
O          19.65260310    26.37328340    14.35628890
H          19.82654760    27.00870900    13.66187480
H          18.77466390    26.04348950    14.16474340
O           9.17556570     1.18451090     1.33702020
H           8.92280960     0.69329800     2.11872120
H           9.83709140     0.63727730     0.91375810
O           8.22923470    25.40628240     3.85186080
H           7.99366380    24.53761860     4.17768190
H           8.17712210    25.97301290     4.62149140
O          20.54556270    11.79268360    10.26572040
H          19.72157860    12.27908610    10.23933600
H          20.71506880    11.55898950     9.35309410
O          17.24347110    18.04850960     3.17691970
H          18.15438080    17.76310730     3.10605120
H          17.25659940    18.96346090     2.89598300
O           8.60112380     7.87814090    15.29444120
H           7.78865050     7.46912150    15.59246830
H           8.85090260     8.46347520    16.00944140
O          13.99836730    19.39909360    23.28372000
H          13.23584270    19.33553700    23.85882760
H          13.75436020    20.05875210    22.63445660
O           5.79882810    18.95595360    27.26581000
H           5.65719410    18.60703470    26.38579560
H           6.75059320    19.01176450    27.35101890
O          17.03390120    12.47727300    19.48074910
H          16.80131340    12.39612480    18.55578990
H          17.54651070    13.28420930    19.52891730
O          14.29992680     1.76432200     5.12631230
H          13.41670700     1.57135180     4.81179900
H          14.35456560     2.71990080     5.11551380
O           5.03360750     9.15459920     0.49350340
H           5.26357270     9.01524830    -0.42515250
H           5.58530810     9.88624290     0.77018770
O           5.47095870     5.18041750    11.48785400
H           5.08958820     5.86579940    12.03652570
H           6.41598320     5.27882810    11.60394480
O           3.19311590    20.01943780     7.47682290
H           3.35847350    20.25709340     6.56445790
H           3.39469030    19.08475490     7.52117060
O           5.25266650    23.71752360    20.61771200
H           4.55577950    23.06723020    20.70545770
H           6.05738640    23.23228070    20.79990960
O          18.55421450    25.75960920    17.12487600
H          19.22925380    25.21443180    17.52902220
H          18.91621970    25.99511150    16.27063750
O          20.18272400    15.72792720    25.83274270
H          19.48572160    15.16757870    25.49152370
H          20.82802960    15.11736010    26.18914220
O          19.90738870    10.15340520    16.33098410
H          20.61168100    10.45843790    16.90296360
H          19.24978640    10.84788610    16.36952210
O          21.19409370     0.45335410     7.12749580
H          21.70429040    -0.34361630     7.27161220
H          21.39951130     1.00854130     7.87969490
O           7.09208680    20.44984050    16.95911600
H           6.87251660    20.11715320    17.82936860
H           7.98766330    20.14842220    16.80640220
O           4.27354340    13.25376800     6.74226090
H           3.35577850    13.51661400     6.81192490
H           4.67741870    13.57842920     7.54706570
O           7.89553830    22.43824770    20.95208930
H           8.39266590    23.24646760    21.07810210
H           8.53978350    21.74005890    21.06919860
O           5.97254370    20.77331540    19.52048110
H           5.68459130    19.96320340    19.94123460
H           6.49390410    21.21808620    20.18875890
O          20.48315240    16.40130230    20.49675750
H          20.46445850    17.05371860    19.79658890
H          20.72581860    16.89649960    21.27914050
O          22.82337760    24.00621800    16.78914260
H          22.67370220    24.70544620    17.42546840
H          22.88335230    23.21032710    17.31752970
O          -0.31299040    17.52271460    16.87446780
H           0.20577030    18.24797630    16.52645110
H           0.18682460    16.73917390    16.64538000
O          10.16229250    14.63584040     4.43538090
H          10.19519810    13.70252700     4.64531800
H           9.93397900    14.66443730     3.50624820
O           2.32892490     4.35924960     5.30769820
H           1.87477090     5.19515750     5.20170880
H           2.16402130     3.89158030     4.48896500
O          18.69601820     4.90698860    24.93300250
H          19.28638080     4.17897460    25.12716670
H          18.11991310     4.57153080    24.24612430
O           7.07135390    10.44771290    19.43271450
H           6.73751260    10.76869870    18.59501080
H           8.01798250    10.38540170    19.30526540
O           6.16422840    23.14468380     1.18679210
H           5.97697830    24.07963370     1.27068070
H           6.92504120    23.00134280     1.74968460
O           4.39676280    26.95542720    26.43633460
H           5.15227410    27.29902460    26.91317370
H           4.66570850    26.07904620    26.16091730
O           6.12480160    14.90977380     4.33763120
H           5.42149540    14.41010190     4.75226210
H           6.70988660    15.14313410     5.05836110
O          21.21509550     0.08423870    20.75192070
H          20.59768490    -0.55090790    20.38912010
H          20.66768460     0.81874960    21.02952770
O          16.98352050     3.21352840    23.67523190
H          16.80279160     2.70416330    22.88522150
H          16.86808010     2.59106520    24.39317700
O          18.56356240    12.11545280    21.72440910
H          18.42325210    11.72335150    20.86255070
H          18.67110060    13.05003830    21.54772190
O           6.52097510     5.84936480    24.98287580
H           6.20328140     4.98984480    24.70623970
H           7.35694310     5.66875980    25.41272540
O           6.26252370     7.74925470    22.74028020
H           6.18438720     7.09782460    23.43724820
H           6.74589350     7.30081030    22.04638860
O          20.43475910    16.22411160    11.44712830
H          20.95593070    16.04917340    10.66353990
H          19.63536260    16.63387680    11.11653900
O          20.56800650    10.20624450    19.06673620
H          21.01803970     9.47056770    19.48204610
H          19.74637600     9.83427140    18.74612810
O           8.57816890    16.25060840    21.04558370
H           8.15828320    16.54487420    21.85387610
H           9.32502940    16.83912280    20.93566700
O          19.93451690     2.44892950     9.41707130
H          20.77474780     2.66092180     9.01049710
H          19.36709210     2.21049480     8.68398760
O          12.19289780     7.89622640    27.06746670
H          12.58513830     7.14179470    26.62790680
H          11.31736950     7.59994750    27.31627080
O           9.31279750    14.01908970     7.70166680
H           9.64659310    13.57598210     6.92162320
H           9.33219910    13.34874440     8.38467030
O          15.87116720    12.99354840     5.24219230
H          16.32281110    12.25710770     4.82999900
H          15.20910740    13.25664420     4.60290340
O          16.68675040    14.21868040     7.61968140
H          16.26025960    13.68908790     6.94598390
H          17.20375440    14.85826400     7.12991330
O          20.70108220     7.17535540    25.63918300
H          21.29534530     7.59390210    25.01636700
H          19.89234730     7.04073760    25.14515880
O           7.76081280    16.01105690     2.45079780
H           7.49488070    15.39607910     3.13440200
H           6.93750950    16.31585880     2.06935330
O           2.04936480    13.16260620    17.07402610
H           2.66318110    13.72625260    16.60310750
H           2.15132780    12.30317590    16.66510770
O           1.45655990     8.55463030     6.95319560
H           1.92268540     8.54332160     6.11723420
H           2.05998110     8.13958930     7.56952000
O           7.75088120    25.06268310    23.80279920
H           8.02679060    25.76053050    24.39703560
H           8.08724780    25.32962610    22.94732860
O           0.89325890    15.36439420    16.02467920
H           1.14353820    14.53898910    16.43976590
H           0.82486520    15.15317250    15.09358220
O          16.89565090    13.49574180    14.76613810
H          16.85375020    14.45138260    14.73108860
H          16.54057120    13.20940690    13.92461400
O           4.21459010     6.66724540    13.44051930
H           4.91520120     7.28536840    13.64860920
H           3.57171890     7.18732310    12.95837020
O           9.67884450     6.55792760     8.34743600
H           9.67502980     7.49592070     8.15668680
H           9.20192910     6.16311790     7.61743070
O          20.20747380     8.27381710     4.65821740
H          20.81567190     7.94732810     3.99509500
H          19.86968040     9.09103580     4.29177280
O           0.69787200    14.78938200     1.66341090
H           1.25767110    15.49554540     1.34062360
H           1.30077430    14.06684020     1.83854940
O           1.65106370    22.38425640    14.84897230
H           2.27538280    22.88995360    14.32865720
H           1.32876470    23.00305940    15.50428770
O          18.23949430    15.17540450    19.52801900
H          18.87836840    15.49377920    20.16575620
H          17.41902160    15.60006430    19.77846150
O           3.43047020    10.17645740    16.08657650
H           2.81033970     9.44920250    16.13920970
H           3.45205090    10.40606400    15.15757370
O           1.53870370    11.55773070    27.51706310
H           1.66451530    11.54393670    26.56826780
H           0.62823660    11.28995230    27.64186100
O           3.61920430     8.53242590    23.24148750
H           3.17914370     7.68349410    23.28499600
H           4.47188760     8.34047700    22.85120770
O           0.93190650    22.47086330    27.90305900
H           1.03999690    23.01482960    27.12290000
H           1.82301120    22.33293340    28.22421460
O           5.92399980    16.89474110     8.66051580
H           5.64154430    17.45059590     9.38679220
H           6.12190440    17.50784300     7.95258140
O          16.18223190    18.01445770     7.18197630
H          15.37246510    17.54019360     7.37061500
H          16.18449020    18.11540030     6.23011590
O           6.32967950    21.26164820    14.15027430
H           6.22054670    20.70092200    14.91832920
H           7.23081780    21.10702900    13.86694340
O           1.94464760    24.67343900    20.75390820
H           1.95981290    23.78952220    21.12091640
H           2.63126250    25.14174840    21.22875400
O          15.40156080    16.81790350    10.43881230
H          14.90611170    16.60933110     9.64681530
H          14.74999140    17.17631910    11.04149630
O          13.69800280     4.86034440     2.34401680
H          13.32220550     5.65436600     1.96383690
H          12.95618440     4.26150270     2.42961050
O          16.39259340     1.00220370    25.21653940
H          16.66515160     0.08792320    25.13885500
H          16.38631250     1.17103220    26.15871240
O           8.65998840    11.81704810    14.64536290
H           8.49339490    12.75396060    14.54204560
H           7.78912350    11.42118360    14.67876240
O           7.91301160    15.94435020    24.34092520
H           8.73045160    16.06525420    24.82404520
H           7.71139530    15.01392270    24.44036670
O           3.15570710    14.92058280    25.73871040
H           2.47656040    15.59485720    25.72012330
H           3.79805830    15.20969870    25.09061430
O          11.49904630    18.23584560    17.28945540
H          11.60840230    18.85109140    18.01453780
H          11.70864490    17.38142970    17.66664310
O           6.09765240    21.94737240    25.98322490
H           6.29522320    21.65422630    25.09369660
H           6.92113300    22.31668850    26.30215070
O           8.86305050     9.17674830     7.76076030
H           8.04111100     9.33121590     7.29515460
H           9.53787420     9.24861620     7.08572100
O          15.39090060    16.12521170     1.06098680
H          15.22147460    15.25669770     0.69600950
H          16.26656340    16.05835340     1.44174500
O           8.73887440    24.98398400    20.85493470
H           9.37506680    25.32553290    20.22657590
H           7.97407150    25.55055240    20.75341610
O          15.66847040    21.76645850    25.50228500
H          16.21649360    21.08742330    25.10882000
H          15.61421010    22.44829940    24.83267400
O          21.43810460     5.43800970    23.09811780
H          20.64851000     5.88434550    22.79224780
H          21.11825180     4.62153860    23.48191830
O           9.97466280    20.47218700    21.00191500
H           9.99557500    20.86556630    20.12953380
H          10.31555940    19.58698080    20.87372400
O          11.11709980    22.59644130     5.65644650
H          10.43954660    22.55723760     6.33144000
H          11.71283720    21.87924190     5.87313840
O           1.70557190     9.87160020    24.51804730
H           1.76250620    10.81648730    24.37599560
H           2.48058490     9.51679230    24.08250430
O          13.99463270    20.65096280    15.73188210
H          14.64610290    21.07313730    16.29187010
H          13.69298360    21.34727480    15.14845470
O          19.02446370    20.72250940    12.30604930
H          18.89062690    21.66846080    12.24691770
H          19.61303710    20.51800160    11.57942200
O           0.24655040    10.31628130     3.22979040
H           1.14701820    10.01746850     3.10290310
H           0.23436150    10.66895390     4.11956880
O           4.14166160    26.88543510     9.39735510
H           3.26273800    27.04107480     9.05166530
H           4.03158660    26.90238760    10.34805390
O          10.44304850    25.30720900     1.95196510
H          11.30514530    25.30859180     2.36791870
H           9.84228900    25.03793330     2.64681270
O          14.89711380    23.32237240    23.41242030
H          14.68452260    24.10845950    23.91551590
H          15.47601410    23.63285830    22.71621320
O          16.54401590    24.11832620     7.49827960
H          16.35642810    23.59305950     6.72037410
H          17.49685480    24.08734890     7.58413790
O           6.38416670    13.12295060    20.94491580
H           6.73975750    13.23529720    21.82648660
H           6.45911220    12.18406960    20.77427670
O           3.77216410    15.12499140    15.94778630
H           4.62948040    15.35471820    16.30620770
H           3.33072830    15.96545120    15.82534220
O           1.32804080     2.64132860    11.67124560
H           1.30696370     2.03970410    10.92704390
H           2.18270950     2.49221780    12.07564540
O          21.27647400    19.40643500     4.10603900
H          21.26440430    18.69553950     3.46516870
H          21.85240360    20.06668090     3.72053790
O          15.62708850    10.43068790    21.08384130
H          14.87358950    10.88823990    21.45682330
H          16.21691890    11.13016800    20.80266950
O          17.57920070    21.94632150     5.84135340
H          17.58454320    22.84466360     5.51092430
H          17.50765420    21.40290070     5.05661960
O          10.16958620    22.90484620     8.40907380
H          10.90164380    23.22088240     8.93864250
H           9.53282550    23.61921880     8.43006990
O          17.68217660    14.42360400    27.27172660
H          17.51983640    13.50786500    27.04523280
H          17.22098540    14.92249010    26.59745030
O          18.35982130    20.74342160    27.03885080
H          17.63147930    20.13468550    27.16208840
H          17.94417950    21.56330110    26.77188300
O          17.23309140    26.02059750    10.45830440
H          17.79993820    25.88115500     9.69970510
H          17.12650490    26.97063450    10.50624560
O           4.54572490    24.43963810    17.21875570
H           5.44478610    24.11117170    17.21335030
H           4.48250680    24.95130160    18.02525140
O           1.35089180    17.82954030    13.05284880
H           0.41823750    17.69253350    13.21903420
H           1.37586280    18.41256330    12.29410550
O          11.80073740     2.68812160     7.27501580
H          11.33142280     3.27325130     6.68037410
H          11.97060970     1.90322090     6.75414370
O           9.97926520     9.96991060    16.19066430
H           9.49426080    10.61881350    15.68083570
H          10.89565660    10.11814210    15.95724300
O          15.31476400    16.47261050    17.09479520
H          14.39209270    16.54699900    16.85112190
H          15.37275310    16.90343090    17.94759180
O           7.16758920    23.03905300    17.66014480
H           7.11368560    22.12456510    17.38258360
H           7.68556210    23.01501460    18.46473120
O           0.97172810     5.20643090    26.92259980
H           1.64642310     4.86708880    27.51070400
H           0.29630350     5.55130050    27.50663380
O          22.59371950    14.93384840    24.06665420
H          22.94756510    15.36901950    24.84231570
H          22.01970860    14.25191780    24.41552730
O          20.63568120    26.97158430    11.51158910
H          20.69609450    26.07319830    11.18680190
H          20.03183750    27.40437320    10.90801910
O          20.05112270     3.46377920    12.37983130
H          20.84554480     3.95813540    12.17799570
H          20.27845570     2.55479690    12.18412400
O           6.56518940     2.91897460    20.75859450
H           6.09715080     3.73325320    20.57386780
H           5.92331120     2.37090370    21.21008300
O          21.21449660    23.73299220     8.35361960
H          21.98019980    24.29203800     8.22171020
H          21.55916400    22.84097670     8.31188390
O           4.01461510    13.50357340    13.48894690
H           3.58996460    13.88740630    12.72175980
H           4.15624050    14.24341680    14.07954220
O          20.63129810    19.53006550     0.97371230
H          20.01293750    20.25987820     0.93856130
H          20.07998090    18.74783900     0.95362260
O          17.59415050     2.66889360    -0.05744570
H          17.22261050     3.27024250     0.58797630
H          17.39524270     1.79739260     0.28483040
O           8.79698940    -0.14359120    25.46014790
H           8.91083910     0.75803150    25.76072500
H           9.58769040    -0.59578350    25.75433540
O           0.36195350    15.26106360     4.58486080
H           0.91821180    15.97823430     4.88895610
H           0.70125660    15.04668520     3.71586870
O           7.13780400     6.16636990    20.78619380
H           6.28827670     5.73340180    20.87031360
H           7.00530620     6.82301000    20.10245510
O          19.43153380     6.96322770    22.42692180
H          18.79449840     7.33162640    23.03904910
H          18.93972400     6.83933590    21.61513140
O          21.61860850     7.54876760     2.38967350
H          22.33758540     8.14192100     2.17178560
H          21.66660120     6.86039590     1.72629330
O           1.10000590    22.36144640    18.80578800
H           1.87047650    21.97915460    18.38571740
H           1.27291850    22.27911000    19.74363330
O           4.75677010     5.14789820    20.65494350
H           4.30004790     5.03337050    19.82156370
H           4.12282660     5.59451150    21.21608920
O           9.20343590     1.99846720     5.25020600
H           8.65409470     1.83267660     4.48406700
H           8.63246350     2.46986370     5.85684110
O          15.57182120    16.31950000     4.56127550
H          16.20427890    15.76319790     5.01597880
H          16.10816000    16.90001680     4.02130130
O          14.31045250     2.97499440    19.20504000
H          14.54401400     3.16027050    18.29545020
H          13.69237230     3.66729900    19.43939590
O           0.53877620     4.57040550     3.00611380
H           0.93389680     5.28603890     2.50813790
H           0.24107250     4.97974730     3.81854410
O           4.17169670     2.94178940    12.86894800
H           4.59953780     3.70040970    12.47186090
H           3.68652030     3.30182430    13.61138340
O           4.52123170     6.54409740     5.32510380
H           3.93939570     7.22357420     4.98450090
H           3.94951130     5.97592780     5.84139060
O           9.48057750    19.76794430    16.12877460
H           9.56174280    20.17168240    15.26469230
H          10.35931970    19.44294930    16.32478900
O          10.72960850    17.82299800    21.37325860
H          11.46153260    18.22915080    20.90897750
H          11.13168910    17.40337750    22.13383870
O           7.82173160    15.76434230     6.33221340
H           7.42148020    15.70547770     7.19971940
H           8.49105640    15.08006760     6.33032040
O          18.77528000     4.95278120    10.70673850
H          18.87347030     4.52540160     9.85589410
H          19.26881410     4.39872120    11.31144910
O          13.38587000     4.63718560    13.19577790
H          13.03452970     3.84009910    12.79898450
H          12.66591360     5.26613190    13.14760590
O          20.04183960    19.99790380     9.92811010
H          20.57157520    19.30774500     9.52899550
H          19.34239010    20.15938950     9.29492280
O           6.03396220     8.79796980     6.26900290
H           5.63022040     7.94201330     6.12560370
H           5.47551160     9.40961460     5.78915600
O          17.14829060    25.91802020    13.68509670
H          16.25780490    26.13793560    13.41141130
H          17.18581580    24.96296310    13.63326450
O           2.47412370     0.91443080    16.56116100
H           2.15507010     1.26092030    17.39445690
H           2.06773640     1.47272320    15.89829440
O          10.12337490     6.75219580     0.53530250
H           9.75842290     7.32325030     1.21127580
H           9.76843830     5.88620900     0.73609430
O          13.81787780    24.60874750    -0.29838200
H          13.29651070    23.80600170    -0.30118530
H          13.89801880    24.83905980     0.62723380
O           9.02713970    21.63351820    27.96118160
H           9.00545880    20.73770900    27.62459950
H           8.77005000    22.17583660    27.21551130
O          18.17968180     1.44742370    21.40500070
H          17.95067020     0.57489750    21.72513010
H          17.69548030     1.53606920    20.58407210
O          -0.05723780    21.42923740     2.59804840
H           0.73444350    21.54356580     3.12378570
H           0.19711570    21.70792580     1.71835060
O          21.99400330     9.40437790    24.43002130
H          21.86926460     9.95942970    23.66022300
H          22.92452620     9.48880670    24.63793370
O          12.96760080    26.16622350    10.12342450
H          13.30447960    27.03707120    10.33406640
H          13.39391990    25.93784710     9.29739380
O           4.47736360    15.63849540    23.39664650
H           3.73697730    16.19955250    23.16583440
H           4.23906040    14.77578640    23.05727010
O          21.13866420    13.23776150    15.51375390
H          22.06629370    13.30396180    15.28714180
H          20.90873720    14.10831740    15.83855820
O          18.32117270    13.44565110     9.59012130
H          17.92679600    13.75116630     8.77320190
H          17.61892700    13.51737120    10.23660280
O           0.56330950    14.64284040    13.53000640
H           1.34201880    14.57061290    12.97807500
H          -0.08618760    15.07179550    12.97288700
O           6.15234950    10.88384720    17.05789760
H           5.31276890    10.74450780    16.61981200
H           6.80287740    10.54768660    16.44142340
O           1.59586690     6.85729740     1.60965700
H           2.52600360     7.01143880     1.77493830
H           1.33873340     7.56072850     1.01358770
O          14.58631610     3.10014320    16.41144940
H          13.87012960     2.87454960    15.81780240
H          15.19029240     2.36007860    16.35022350
O          12.84184360    19.43605610    20.13565640
H          13.59910960    19.00419040    19.74034310
H          13.20588970    20.20707510    20.57066350
O          12.98808000     2.74020550     9.84169480
H          13.84478280     2.31920030     9.77064700
H          12.59420490     2.62929420     8.97636700
O          17.50581550     1.75042030    14.93743520
H          17.20729450     2.45700140    14.36484340
H          17.64724920     1.00884030    14.34897420
O           1.37937520     7.89519070    10.21506690
H           1.77966000     8.09815030    11.06053160
H           2.11574530     7.65358970     9.65326600
O          17.71548840     6.54092550     5.17145440
H          17.54119870     5.81436200     4.57315640
H          18.58150670     6.85889290     4.91622920
O          18.21940040    23.83615680    11.90656090
H          19.12889670    24.08349800    11.73961830
H          17.70333290    24.47503850    11.41489220
O           7.01632690     1.28351470    27.57225420
H           7.45860290     1.52689960    26.75899700
H           7.69694710     1.34444590    28.24253650
O          16.12673000    16.04888730    14.22112660
H          16.63930700    16.69838330    13.73982620
H          15.84162140    16.50685310    15.01183130
O          19.28264240    10.20756240    25.19347760
H          20.14503670    10.16419320    24.78040700
H          18.79036330     9.48921300    24.79615020
O          21.16218570    21.35488890    24.92558670
H          21.98388100    21.77553940    24.67240520
H          20.72914700    21.15609930    24.09540940
O           1.35873960     9.91740510    20.77592850
H           1.00574370    10.71567250    21.16886140
H           1.53690120     9.34259220    21.52029420
O           0.93767630    19.59635730    21.57290650
H          -0.01245420    19.71212770    21.58192250
H           1.14156990    19.35988430    20.66806410
O          21.44558140    17.28813740    23.30007930
H          21.88783650    16.53260420    23.68713380
H          21.94285960    18.04342840    23.61389350
O          11.37967680     3.06289840    17.10885240
H          10.59101680     2.57182000    17.33926010
H          11.77221300     2.56340860    16.39285090
O          16.87107850     1.81070880     3.43973710
H          16.15035440     1.50636030     3.99124410
H          17.61165430     1.25651720     3.68601300
O           2.82485750    22.03848270     2.83695720
H           3.47245670    21.63750270     2.25724820
H           2.97583170    22.97969820     2.75005700
O           3.92327670    25.77808380    22.59914590
H           4.55772020    25.14828490    22.25699420
H           3.45437600    25.29867740    23.28217700
O          18.49669650     8.13034920     9.32591720
H          19.32164960     8.02132510     9.79898740
H          18.75958820     8.28697590     8.41895100
O          19.73031810    11.93164920    13.79598430
H          18.87467960    12.30583480    13.58597950
H          20.08588790    12.51049520    14.47032740
O           3.55201410    10.45430280     7.48468970
H           3.74154070    11.31974890     7.12231640
H           2.80284670    10.14121150     6.97778220
O           0.15893730     2.51371650    27.32202340
H           0.72194840     3.27934910    27.20775410
H          -0.37012120     2.71839210    28.09301950
O           3.74274330    23.30813980    11.73910140
H           3.08995600    23.99176220    11.88996320
H           3.26203420    22.61287500    11.28992840
O           7.06086730    19.76191900     9.16592030
H           7.17391200    20.31273840     9.94054990
H           7.95120620    19.60582730     8.85102080
O          17.12167550    18.34744830    12.67869000
H          17.78366470    19.03717230    12.63092420
H          17.23835560    17.84713170    11.87103840
O           1.62761090    13.48798660     6.47667030
H           1.43988110    14.09657570     5.76210210
H           0.77536760    13.32102680     6.87920950
O          11.20514300     6.92008260    12.14133640
H          11.92608260     7.33022260    11.66357040
H          11.05953220     6.08947420    11.68843460
O          10.41497230     7.09003690    19.18927570
H           9.86822320     6.40304420    18.80804250
H          11.29790880     6.72037080    19.19051930
O           2.90558600    10.74339390     1.88796930
H           3.68810060    10.35951900     1.49231360
H           2.33130910    10.93434240     1.14636490
O           9.70211600    21.40669250    18.47262950
H          10.04586980    22.29934880    18.43753620
H           9.31627080    21.26446720    17.60826490
O           9.90997120     9.60221390    19.03822140
H          10.09756660     9.85934930    18.13549230
H          10.14515500     8.67516710    19.07699780
O          19.46247480     3.89291640    19.08380510
H          18.69678310     4.46467160    19.02864460
H          19.32149510     3.23725010    18.40082740
O          22.11769490     3.87987490    18.32931140
H          21.84079740     3.53633860    17.47987560
H          21.33685680     4.30770640    18.68071750
O          11.41854670    26.61398510     6.86053660
H          11.34037970    26.86245730     7.78161330
H          12.04692840    25.89192770     6.85974310
O          16.75770000     5.64727830    27.06758880
H          17.52227970     5.11353350    26.85133550
H          16.64288520     5.53025390    28.01064490
O           9.55091670    12.26991370     5.49954610
H           8.72446250    12.11781220     5.95788100
H          10.02277950    11.44052220     5.57495210
O          12.58569050    15.83392240    17.72570230
H          12.97821140    15.28654960    18.40580560
H          12.58452220    15.28105640    16.94431300
O           5.53063390    23.95458220    13.69809720
H           4.86174200    23.81599810    13.02756690
H           5.61861040    23.10392000    14.12805750
O          11.52324100    13.29888440     1.54746940
H          12.38625910    13.60898490     1.82182050
H          11.36219410    12.52729700     2.09055920
O          18.68317600    17.25640300    23.53552250
H          19.63812640    17.29610820    23.58773040
H          18.46799660    16.35294720    23.76724620
O          20.57700920    15.39899920     8.77507500
H          20.77632710    15.07099630     7.89819530
H          20.18578150    14.65150170     9.22720430
O           1.91168380     2.41056700    23.42244910
H           1.30254720     2.28177810    22.69540210
H           1.55948230     3.16178680    23.89979170
O           2.19647570    12.97342400    19.88780020
H           2.24852250    13.11848550    18.94308850
H           1.37371520    13.38722710    20.14868930
O           9.29808430     8.65675260     4.34690860
H          10.07265090     8.12337300     4.52518650
H           8.80875780     8.15744780     3.69308350
O           4.66721530    14.47890000     0.35116410
H           4.95513150    15.36337570     0.57708150
H           3.87561580    14.61065010    -0.17060490
O          17.42811580    22.86737250    18.23340230
H          17.33355140    23.02790640    19.17229270
H          17.76643940    23.69114300    17.88244440
O          11.59019280    16.01166340     6.69827750
H          11.35765840    15.34986210     6.04698850
H          10.74979210    16.31820490     7.03885460
O          12.44145010     2.00095730    14.76787760
H          12.18977550     1.08772970    14.90537640
H          12.06453800     2.22787830    13.91777420
O           5.25865360    11.59995560    12.08397290
H           4.71353720    11.56477070    11.29794500
H           4.68198390    11.95661260    12.75960350
O           5.81760790     3.24460670    24.04676440
H           6.62597080     3.01080390    23.59056470
H           5.12057690     3.01246620    23.43317600
O           3.15726350    17.88327790    15.04294970
H           2.71852660    18.60541530    15.49268340
H           2.56516910    17.65171620    14.32738300
O          12.19229600    20.36888500    12.12848850
H          12.38397790    19.53624340    12.55999370
H          13.03047660    20.64508630    11.75781440
O           2.21890140    -0.15071750    24.70812420
H           3.05003430     0.12837860    25.09225270
H           2.08613560     0.44172020    23.96810910
O           5.23119350     3.09347410    26.90884210
H           5.90023610     2.43819500    27.10688780
H           5.16502480     3.08718370    25.95395090
O           6.90423200     3.12838720     6.79227160
H           7.11549950     2.41691950     7.39676480
H           6.43165970     2.70257930     6.07701210
O          16.01675420     0.47778100     0.53408180
H          15.31347660     1.08726330     0.75805120
H          15.62447360    -0.38915660     0.63784440
O           9.34056090    22.44224550     3.49169520
H           9.74781040    22.45688440     2.62557440
H          10.04061130    22.70344540     4.08997150
O           6.26007270     0.64499540     4.39660070
H           6.01921650     0.22099990     5.22028060
H           6.40904430    -0.07941660     3.78892780
O          11.49769210    16.40378000    23.41093060
H          11.16984940    16.68257330    24.26593020
H          10.85766980    15.76004120    23.10728450
O           2.65408870    16.04628940    19.67127040
H           2.36550880    15.16402150    19.90484240
H           3.42340730    15.90822320    19.11871340
O          11.97876070    13.53983970    26.48399350
H          11.82608130    13.58668800    27.42777630
H          12.93142030    13.56378270    26.39400290
O           5.67820930    11.71739480     1.66041490
H           5.48541640    12.48073100     1.11600710
H           6.55609890    11.88366030     2.00377440
O           6.47809220     0.93473120     8.28181270
H           6.76712040     0.06562870     8.00368400
H           5.64526560     0.77901910     8.72721770
O           8.72371290     2.57791500    25.65530590
H           8.99543760     3.46234390    25.90062710
H           8.56059270     2.63003710    24.71354870
O          14.21396830     4.29107050    23.52453800
H          14.98347090     3.83406330    23.86401180
H          14.57003970     5.05399370    23.06913380
O           6.29363060     5.47359420    27.67993740
H           5.75021930     4.68865250    27.61063770
H           6.06126020     5.99440620    26.91117670
O           1.29942770    18.32644840    19.17597200
H           2.00838830    17.69011310    19.26916500
H           0.66988830    17.90016940    18.59442330
O           1.57552030    22.41128920     6.43991950
H           2.30427720    21.80771260     6.58428290
H           0.86056790    22.05384640     6.96652130
O          16.95417020    19.73241420    24.05771260
H          16.06101800    19.45512770    23.85369300
H          17.43166540    18.91537480    24.20151330
O          14.14520840    16.45467190    23.22849460
H          13.26200290    16.26174740    23.54307560
H          14.16046810    17.40626140    23.12614440
O          21.83587070     5.32885120     9.40335660
H          21.64810560     5.16506720     8.47915460
H          21.74217220     6.27627520     9.50255680
O          22.03706550    25.90607830     3.46427800
H          22.65501590    25.76732830     2.74655990
H          22.13950540    25.13427930     4.02111150
O          19.10774990    25.54500010     8.85478210
H          19.41055680    26.10809900     8.14241980
H          19.68281750    24.78073690     8.81693550
O          13.13997840    18.10029220    15.14980890
H          13.50400350    18.97015380    15.31429860
H          12.55641750    17.94067760    15.89157100
O           5.64632610    17.88460160    24.61006930
H           5.70718570    16.99427220    24.26388740
H           5.10248760    18.35157970    23.97571750
O           2.94177130     8.77662370    12.45829390
H           2.80192640     9.57466980    12.96799660
H           3.51270650     9.04837130    11.73966980
O          21.43410870     8.05677130    20.72277070
H          20.91332050     7.50543930    21.30676080
H          22.33654400     7.93069790    21.01593970
O          13.97163870    25.57193950    12.63861660
H          13.58825780    25.43736080    11.77193260
H          13.25442500    25.92406080    13.16572760
O          15.09417630     5.72598030    16.71535110
H          14.83953380     4.81497140    16.56888770
H          14.26668640     6.20696020    16.72762490
O           7.34351160    10.52338890    23.02359960
H           6.81515120     9.73324110    22.91076660
H           8.23999600    10.23963070    22.84462930
O          14.19804860    16.06929020     7.85243610
H          14.36886120    15.15891930     8.09384440
H          13.26710320    16.08760830     7.63054370
O          21.01468850     4.64189860     6.52571770
H          21.03178790     4.01848650     5.79956630
H          20.13112450     4.56582400     6.88594150
O           3.14227940     4.40929370    18.27709200
H           2.74013020     5.26605180    18.13400840
H           2.40266590     3.80476640    18.33832740
O          17.16644480    19.92635920    20.02322390
H          17.34828000    20.03606800    19.08988000
H          17.55979160    20.69527630    20.43587110
O           6.97821040     0.06115930    13.20669170
H           7.12081530    -0.26449710    14.09542270
H           6.04671290     0.27964320    13.17825320
O          16.58711050     3.65956000    12.98711200
H          15.68557450     3.87589140    13.22515870
H          16.98607440     4.50197740    12.76941680
O          17.18747330     1.75334720    10.89264870
H          18.00457760     2.14945960    10.58988290
H          16.87000470     2.34853150    11.57176780
O           5.92301560    14.22309400     8.91119580
H           6.26181600    13.96940900     9.76973530
H           5.88419340    15.17901130     8.94194130
O          21.03581810     1.72256640     1.40654870
H          20.24152370     1.20537070     1.54010130
H          21.75170520     1.10488100     1.55555560
O          17.88040160    25.95412450     4.44785790
H          18.51880840    25.51484490     5.00972940
H          18.39722630    26.29102520     3.71599650
O          18.92827800     6.59698920    12.94631200
H          19.14338680     7.52505450    12.85328100
H          18.89711760     6.26716090    12.04827310
O          17.75692560    20.36580850    17.20948790
H          18.40463450    20.42269710    16.50701710
H          17.63985820    21.26994900    17.50113300
O          14.81037430    13.83142570    27.68471150
H          14.87315180    13.14764120    28.35159300
H          14.87085910    13.36124900    26.85314180
O           8.52264790     3.28883620    22.93209650
H           9.12003710     3.96208640    22.60638050
H           8.31921960     2.75668220    22.16290090
O          14.65713500     9.27064800     3.07006720
H          15.44873810     9.79060460     3.20878100
H          14.32979010     9.09285640     3.95180770
O           9.62785340    16.49335860     0.70139340
H           8.89589690    16.19108200     1.23907590
H          10.37057880    16.52580640     1.30433300
O           3.38828920     7.02006860     8.49670600
H           3.49362830     6.06963010     8.45424840
H           4.16498090     7.32645650     8.96479700
O          13.14794730     0.58935900    18.45252610
H          13.93246940     1.07727410    18.70292090
H          12.45724490     1.25081710    18.41209410
O          17.00443460     8.11742590    20.50128360
H          16.65617560     9.00897880    20.49225040
H          17.47113230     8.03415490    19.66972540
O          14.30878830    11.09617520     0.79960330
H          14.40463450    10.53805450     0.02788710
H          14.27956100    10.48459150     1.53536300
O          20.79629330    24.35821910    11.22574810
H          21.41835210    24.02901460    10.57698150
H          20.88550570    23.76044460    11.96799850
O           9.43811040     5.44532160    17.31437870
H          10.02781300     4.70015380    17.19945910
H           9.73373410     6.08659320    16.66815190
O           3.82127260    21.46306230    17.53226470
H           4.55805110    20.97324180    17.89759250
H           4.18461420    22.32448390    17.32691570
O          21.54859540     8.13663100     9.62806030
H          22.47948650     8.15594770     9.85009860
H          21.11804010     8.57405280    10.36257740
O          20.20615390    17.17103770     2.80251240
H          20.70801930    16.39241980     2.56143690
H          19.48953060    17.19985200     2.16859360
O           8.60256200     2.09362010     9.82396600
H           7.83895490     1.70638160     9.39596940
H           8.23484990     2.67878700    10.48623470
O           8.55527880    18.62489700    24.26621440
H           9.15263180    18.48407360    23.53166010
H           7.97232060    17.86587140    24.24976540
O          11.73309140     1.69912030     3.99546030
H          11.55257030     2.47490950     3.46461650
H          11.00273510     1.65598850     4.61267380
O          15.06783580     0.92261140    21.26579090
H          15.21428970     1.62317920    20.63019180
H          15.30597210     0.12178300    20.79867740
O           0.75469670    10.32269000    17.88634870
H           0.41077880    11.15795230    18.20303150
H           0.77583390     9.76269820    18.66236110
O          18.83880420    17.40101620     0.48444730
H          18.00348850    17.70919610     0.13301540
H          19.25376510    16.94610980    -0.24842420
O           2.70251920     3.64901420     0.34555180
H           3.49612120     3.68548080    -0.18839280
H           2.93493910     3.08309250     1.08172060
O           4.33363720     9.67270950     9.95442870
H           5.05899430     9.06711200     9.80165000
H           4.17802240    10.07987880     9.10223770
O          11.40367320    19.12603000    24.74046330
H          10.68884850    19.67307280    25.06604190
H          12.14739230    19.34453580    25.30203820
O          18.21807860     4.13064620     4.08510020
H          19.16008570     3.97696660     4.01274590
H          17.82925220     3.54491780     3.43550940
O          19.47570420    20.71126560    15.27148250
H          18.96628380    20.71192360    14.46109960
H          20.38544460    20.78289600    14.98256680
O          20.44915200     2.90624590    21.51459880
H          19.65436740     2.39888450    21.67932130
H          20.29653550     3.32162640    20.66583630
O          10.47889710     9.19162750    24.35768890
H           9.74899670     8.80875870    24.84440420
H          10.57010270     8.63418390    23.58492090
O           2.99591420     4.58468010    14.75445370
H           2.61767650     5.12351850    15.44930650
H           3.56498500     5.18300100    14.27030180
O          19.29802320    13.27116680     4.77009110
H          19.52367210    12.34604550     4.86739250
H          18.72982220    13.29942610     4.00029850
O          21.60645870    25.05882640    22.80028340
H          21.51551630    25.93898580    22.43520930
H          21.59117890    24.48047260    22.03771780
O          12.50496860     4.16519210    21.42447280
H          13.01150700     4.23250530    22.23386760
H          12.20094490     3.25772640    21.40695760
O          11.73022650     7.26141410     4.20222090
H          12.10230540     7.06829980     3.34170030
H          12.49050900     7.35814910     4.77567010
O           0.15811420    23.25502010    24.20464710
H           0.62327750    23.63890460    24.94794270
H          -0.28184240    23.99638180    23.78865240
O           6.94029620    13.93173890    26.14855190
H           6.38015560    14.65111260    26.44005580
H           7.50932310    13.75276660    26.89715770
O           4.88695620    20.85758020     1.46965000
H           5.33565900    21.67995070     1.27317120
H           4.86797900    20.38969610     0.63481070
O          15.61776540     6.88765860     7.94551470
H          15.07636360     6.11977050     7.76258750
H          15.91260910     6.76342920     8.84766010
O          21.67662620    17.87810330     8.81124690
H          21.81835560    17.91956710     7.86550620
H          21.17096710    17.07607080     8.94271850
O           8.44749070    13.18987750     0.56299860
H           8.43832970    12.92327020     1.48227380
H           9.37268450    13.33472160     0.36483310
O          16.50573540     6.59393260    10.51076030
H          17.05035400     5.83032850    10.70189290
H          17.11535840     7.23944710    10.15312580
O          13.84322550    14.42805960    20.14803500
H          13.92921920    14.70857720    21.05916020
H          13.91278550    13.47405150    20.18356700
O          12.97986410    20.32122990     5.30538560
H          13.10839750    20.38383290     4.35892300
H          12.58023360    19.46137810     5.43647000
O          19.45333290    24.00612830     6.05563740
H          19.97332570    24.16391370     6.84363650
H          19.90767670    23.29253580     5.60776620
O          19.29370500    16.77489470    14.86120030
H          18.52117540    16.67290690    14.30529590
H          18.94252780    17.02548790    15.71566390
O          21.48956680     6.11717840    28.00758360
H          21.59513660     6.38844540    27.09571650
H          20.84174730     5.41328100    27.97460370
O          15.62842180    17.63636020    19.64560130
H          15.84544850    17.09744640    20.40632440
H          16.31287570    18.30511470    19.62272260
O           1.63624360     2.41377900    18.87655450
H           0.76516040     2.77542000    18.71327210
H           1.64361640     2.22089460    19.81409070
O           8.44113920    11.92042260     2.94210700
H           8.95691110    11.17060570     2.64547990
H           8.56313320    11.93455410     3.89139630
O          12.33104040    26.20959470    14.76501270
H          11.42847060    26.03262140    15.03011890
H          12.85619070    25.59552570    15.27820590
O           8.29845810     2.54771210    12.75596620
H           8.09180450     1.62559960    12.60353850
H           8.04221340     2.70350150    13.66497610
O          14.51258470    22.42246630     6.36111160
H          14.75342080    21.84939580     7.08899880
H          13.88518520    21.91053960     5.85068890
O          11.06377220    11.92356200    12.92464830
H          10.35924910    11.43184570    13.34665870
H          10.87865260    11.85142800    11.98829270
O          11.04875370    25.28551290    25.19128040
H          11.12662120    24.50530050    25.74031450
H          11.53185080    25.06680680    24.39440160
O          13.65162280    18.39007000     0.89050700
H          14.12845230    17.59025960     1.11224770
H          12.83005140    18.32176020     1.37690760
O          19.92166330    27.01942250    24.78308870
H          19.50236510    26.20782470    25.06897350
H          19.44615550    27.26839260    23.99053760
O          21.24403570    14.15229320     6.46757410
H          21.76916690    14.57845590     5.79018500
H          20.70767590    13.51839540     5.99141980
O          14.30311390    12.27318100    25.49678230
H          14.12448020    11.34877110    25.66937830
H          13.85707660    12.45285130    24.66913410
O           0.61336500    16.65046500    26.01188280
H           1.05726120    16.51586720    26.84918400
H          -0.01491380    17.35182570    26.18390080
O          12.76920510     7.90392260     7.99789140
H          12.61822410     6.96076350     7.93552970
H          12.90962220     8.06280420     8.93131070
O           4.99759290     9.52630420    25.58681680
H           4.52697180    10.35981660    25.58502770
H           4.69218160     9.07711600    24.79866220
O           3.65503950    13.33584310    22.24427220
H           2.97781060    13.00537970    21.65402980
H           4.45209220    13.34279540    21.71428110
O          23.11599730    19.42686080    10.63965700
H          22.62346840    18.96821400     9.95900150
H          22.45919990    19.65648840    11.29701420
O          20.00959970    15.12615110    17.37937550
H          20.56572340    15.83259680    17.70784570
H          19.27426720    15.09590820    17.99142270
O          18.28731920    12.40607740    16.78718950
H          18.75504110    13.23741820    16.86682890
H          17.72989650    12.51769160    16.01708790
O          20.12347790     0.66532390     4.61986730
H          20.57478900     0.61679520     5.46259780
H          20.65845680     0.13343590     4.03069400
O          11.22394750     2.65739040    12.36846160
H          11.45759200     2.71203780    11.44182400
H          10.28636740     2.46458030    12.36809920
