506
Conf 1. Box X: 18.226 0.000 0.000 Y: 0.000 16.794 0.000 Z: 0.000 0.000 16.405
H          11.40735150     7.73876190     6.01995420
N          11.71677300     7.67435260     6.98870180
H          12.09624580     8.61400510     7.09553770
C          10.54327010     7.59393450     7.84670260
H          10.84496020     7.83847810     8.87255480
C           9.54643150     8.77829070     7.48653940
H          10.19678400     9.65847590     7.54955010
H           9.13637070     8.61561010     6.48301980
C           8.32336620     9.03657910     8.41078190
N           8.29998490     9.42050460     9.70515730
H           9.12122440     9.41164020    10.29216480
C           7.03445340     9.93313980    10.05889610
H           6.70181080    10.28845500    11.02524280
N           6.30181500     9.76935010     8.98742290
H           5.30344390     9.91612340     8.95907880
C           7.09519580     9.43492030     7.93703990
H           6.68380550     9.40495010     6.93696360
C           9.88836960     6.23213770     7.97109650
O           8.76241970     6.00169940     8.04075340
O          10.75950910     5.25431440     7.83233170
H          11.60625930     5.72651290     7.75611640
O           1.88122170    13.79258820     6.79339270
H           1.16095340    14.26027580     7.21613690
H           2.48866720    13.59381480     7.50594520
O          12.17273810     2.35279800     4.14990900
H          11.37921430     2.83958200     3.92721390
H          11.86701110     1.64019820     4.71112540
O          18.01547620     6.52503010    14.32508750
H          17.26953510     6.53690290    13.72536850
H          17.88895030     7.29465290    14.87997820
O          12.88244150    10.07081790     7.87618060
H          13.69573690    10.37938310     8.27564430
H          12.26939490    10.79718210     7.98932600
O           8.94270130    11.95436670    12.30051520
H           8.35362150    12.28447530    12.97892860
H           9.72172360    11.66895290    12.77789780
O          14.06785680     3.08157250    13.42973900
H          13.50419240     3.72296000    13.86233140
H          13.48712540     2.62362190    12.82206730
O           6.57488820     3.70177080    16.32915500
H           7.16178040     3.62517550    15.57687570
H           6.16404440     2.84022470    16.40110970
O           1.89670310     7.93425080     0.76447440
H           1.99188700     8.03776070     1.71128890
H           2.71341540     8.27817250     0.40263130
O           3.42389460     9.72388840     8.60157110
H           3.07025980    10.38135910     8.00248240
H           2.86077480     9.77600380     9.37384800
O           9.81705280    13.73041730    10.24578290
H           9.41755580    12.93922620    10.60723880
H           9.08077430    14.32336430    10.09564970
O          13.42569830    10.53685860     5.23979900
H          12.77778530    11.23721980     5.16276070
H          13.21481420    10.10550690     6.06786580
O          15.11056230    15.83826540     1.47053780
H          14.85513780    16.34746550     2.23976160
H          15.85675720    15.31643960     1.76570430
O           3.38437530    14.93233490    15.71613500
H           2.47711970    14.65738300    15.84849930
H           3.67794780    15.21448990    16.58241270
O          15.02108480     5.17317580    10.24736600
H          14.49815750     5.72201300     9.66293720
H          15.92520140     5.44006630    10.08131220
O           9.93717100    14.89222720     0.94548460
H           9.81223680    15.81587510     0.72754430
H          10.71452620    14.88092230     1.50389530
O           8.58164310    13.48587320     5.60942890
H           8.41500090    14.07540040     6.34490160
H           7.78255460    13.52656170     5.08403970
O          12.61938950    12.99223040     2.83515880
H          13.24389550    12.81773570     2.13104560
H          12.59997270    13.94652940     2.90704370
O          16.78448490    12.58640770    14.93411350
H          16.49277500    12.41235730    15.82901290
H          16.86991690    11.71958540    14.53718570
O           8.15904710     4.21075820    13.16914940
H           8.65907760     3.93689230    12.40025520
H           7.32497980     4.51924130    12.81502820
O          17.52701950     7.40202860     3.57749580
H          17.38206860     6.83695410     2.81860690
H          17.14406970     6.92086120     4.31102130
O           5.72843360    11.63158420     5.72742180
H           5.56450370    12.56164460     5.88345910
H           5.19761940    11.42037580     4.95939920
O           2.64342280     9.13030150    14.22332670
H           2.46551730    10.06874180    14.28586390
H           2.57782720     8.93587020    13.28838060
O           6.46358300    14.77407930     4.38313440
H           6.04597850    14.50985910     3.56336280
H           5.95887850    15.53314020     4.67525010
O           1.38131130    16.27607730     8.16742520
H           2.33674220    16.22648240     8.13703440
H           1.18769780    16.63927460     9.03162000
O           3.98387790     3.33056690    11.89034270
H           4.63956930     4.02146340    11.79567050
H           3.17961380     3.79403380    12.12398910
O           9.15216260     7.25472160    11.70557980
H           8.60075860     6.87049720    11.02399640
H           8.64391610     7.15323780    12.51032730
O           2.62876530    11.09197330     6.07019710
H           2.29442430    11.98224160     6.17914300
H           2.77985930    11.00639060     5.12888000
O           0.26563050     9.03819750    15.56804280
H           0.97749410     9.04085450    14.92813970
H           0.64312440     8.62495230    16.34454730
O           3.44679050     7.09269140    11.19808960
H           2.92101070     7.84008410    10.91314700
H           3.16112780     6.37128260    10.63755610
O           4.97425170     2.94653030     4.80253550
H           4.69681070     2.88975950     3.88818570
H           5.52000710     3.73206210     4.83890060
O           2.35681460    16.17169380     5.17542890
H           2.08174540    16.11111640     6.09025050
H           2.31774160    15.27112290     4.85343980
O           4.13467220     7.15466260     7.87357810
H           3.31973810     6.65560960     7.92890550
H           3.85271240     8.06668380     7.80324270
O          11.62308410     1.60009340    12.17297080
H          11.88153360     2.38739540    11.69381430
H          10.73826410     1.40972570    11.86138440
O           5.56229110     0.50853590    14.04173090
H           5.26979830     1.05083610    14.77425290
H           6.47171400     0.29470010    14.25019170
O           4.20348740    16.68529700     2.52683070
H           3.76285820    15.88405510     2.80982970
H           3.54381440    17.15345190     2.01507450
O           5.82151790     5.38209870     5.46843050
H           5.47116090     5.65435980     6.31657890
H           5.43349550     5.99282840     4.84178880
O          15.62837510    12.48162270     3.84845210
H          14.73692990    12.51277920     4.19570880
H          15.85260870    11.55105880     3.84737040
O          13.84246350    11.89270500     0.57766680
H          13.48845580    11.04370500     0.84244680
H          13.65114970    11.95057010    -0.35843230
O           4.17479230     9.51622490     1.14775130
H           5.08788870     9.75364210     1.30936860
H           3.66909190    10.14476300     1.66295860
O          17.08814810    14.27817920     2.35136700
H          17.32825850    14.88399700     3.05248280
H          16.54522900    13.61738680     2.78128100
O          10.55060580    15.74660780    13.56175990
H          11.30126860    15.94512370    13.00200080
H          10.85259720    15.03247450    14.12304970
O           2.03367020     6.01605320     6.53780510
H           1.87078460     5.86984780     5.60596610
H           1.26394310     6.49624350     6.84304240
O          17.65901760     5.91774510     9.76311300
H          18.20770650     5.13544890     9.81954290
H          18.23426820     6.58761840     9.39353560
O          16.30602460     0.00425380     6.26434560
H          15.82980250     0.81468820     6.44501260
H          16.43294140    -0.39582970     7.12461190
O          10.30371000     5.74002030    14.18947600
H           9.76986410     6.52186920    14.33072850
H           9.66928580     5.02726220    14.11388870
O           9.39094730     2.34752800    10.85340790
H           8.50278760     2.01598310    10.98563190
H           9.35063550     2.81406740    10.01857380
O           2.82380560     3.29018210    15.06891440
H           2.78447890     4.20576810    14.79253200
H           2.04128430     2.89130930    14.68839740
O          14.18418790     6.39706130     0.58182570
H          14.45615860     7.19726800     1.03119610
H          14.86065860     5.75677590     0.80240110
O          11.65220930    15.80604650     7.86943770
H          12.23832420    15.07654950     8.07077310
H          10.82288840    15.56846710     8.28418350
O           1.39774550    11.38261410     0.59759760
H           1.01338180    12.24007890     0.41525030
H           0.81634500    10.76137920     0.15910870
O          12.41076180    14.08682730     9.77156830
H          11.47976780    13.93482210     9.93397430
H          12.64236160    14.80533980    10.36006830
O          13.13484100     5.48167710    14.44006730
H          13.44355870     5.60192200    15.33810230
H          12.18380260     5.57231430    14.49957750
O          10.07518770    10.99747090     2.35589620
H          10.89970680    11.45662590     2.19596200
H           9.95300960    11.04778290     3.30393270
O          16.64658360     2.04969170    10.69505500
H          16.87205700     2.44504690     9.85298160
H          16.29778670     2.77434110    11.21414570
O           4.58883670    12.14274500    15.66639230
H           4.34255030    13.00179100    16.00934220
H           3.75520780    11.69761090    15.51424030
O           7.21513940    15.11786460     7.38941290
H           6.63471510    15.70537190     6.90549660
H           7.66138550    15.68584630     8.01749990
O           8.93957040     9.99162960    15.73424430
H           9.78525830    10.30720040    15.41571710
H           8.29622360    10.55460170    15.30366420
O           7.86374280    12.76663970     8.48840430
H           7.78477100    13.63737200     8.09876160
H           7.74448490    12.16403390     7.75432250
O          10.06704430     3.99266960     3.21799470
H          10.65175720     4.03595970     2.46137790
H           9.42620850     4.68715190     3.06549930
O           1.92702040     4.86284730     1.32285360
H           1.36214820     4.41832160     0.69075540
H           2.10321120     5.71666380     0.92764900
O          15.32794860     8.73497300     1.52570660
H          15.86228940     9.00440690     2.27277920
H          15.70063970     9.20798400     0.78166850
O           2.69165020    11.07111930     3.08187220
H           2.18567920    11.24456980     2.28805830
H           2.42702360    10.19022270     3.34687450
O          15.57521060    16.25922780    11.35089870
H          15.87056730    17.12018010    11.05465980
H          16.36760710    15.83387280    11.67863940
O          14.78787900    14.98038860    14.14219470
H          15.07531930    15.30068110    13.28719620
H          15.18285080    14.11175440    14.21772100
O          11.34859180    12.04621790     8.46952340
H          10.49087140    12.41051200     8.68824200
H          11.96910380    12.73525330     8.70706650
O          11.47992040    12.27158830     5.19195940
H          10.64192200    12.69926170     5.36827560
H          11.70948700    12.55075550     4.30562110
O           3.01012110     3.39047190     6.77685690
H           2.82474590     4.29568480     6.52694180
H           3.74798180     3.13540320     6.22302060
O           2.53570010    14.91831680    13.11794760
H           2.98717190    14.90683560    13.96191020
H           2.39038870    15.84689240    12.93666460
O          13.86506270     3.62828920     2.20434550
H          13.68618680     3.03515790     1.47466700
H          13.29909520     3.31665470     2.91060040
O           9.36785410    16.04375080     4.13892080
H           9.13639070    15.19648740     3.75839300
H           8.65623090    16.62713620     3.87532280
O          10.87739660     0.68692540     5.78612800
H          11.22977730     0.05811740     6.41593790
H          10.32345960     0.16220420     5.20815560
O          11.90539260    15.57804390     2.80518030
H          11.16445640    15.91257570     3.31048800
H          12.52659130    16.30587200     2.78049640
O           9.23807530     2.03308440     7.75179000
H           9.68239310     1.46134900     7.12574670
H           8.75634380     2.65581660     7.20738840
O          13.02237320    15.81941130    11.63960650
H          13.94492340    16.06822010    11.69641210
H          12.54536820    16.64254760    11.74516580
O           5.87220100    12.51872250    10.52993490
H           6.79372880    12.55786900    10.27403260
H           5.73679160    13.30517290    11.05851080
O           4.65576270     6.87650540     3.48298720
H           4.52160360     6.31283470     2.72107580
H           5.25520130     7.55640270     3.17534300
O           7.96286390     1.95555830     4.47405580
H           8.15246680     2.56639050     5.18621350
H           8.48255350     2.27760270     3.73754840
O           4.13204960     0.60768940     8.20915220
H           4.73211190     0.28901530     7.53490830
H           4.46399590     1.47693870     8.43376160
O           6.28728290     5.86489680     9.07719140
H           7.13074970     6.11632490     8.70091920
H           5.64835450     6.41093830     8.61910720
O          16.84789280     9.92532830     3.89233260
H          17.01212120     8.98666570     3.98274610
H          16.88280300    10.26192280     4.78771920
O          16.98964690     3.97407510    12.88593480
H          16.91392140     4.83830120    12.48144630
H          16.10761830     3.77994060    13.20306490
O          13.79407310    12.68478300    11.73006060
H          13.89484690    11.93279650    11.14645770
H          13.52180670    13.39968300    11.15471740
O           6.82395740     0.38381810     2.18733880
H           6.66438670     1.20470670     2.65307590
H           5.99298190    -0.08809900     2.24215940
O          16.48636050     9.05916210    10.72197250
H          16.36335180     8.34554670    11.34795380
H          17.43173030     9.20887280    10.71216870
O           4.65566060     1.64050720    16.40496640
H           4.27009110     2.46215960    16.10090070
H           3.90414880     1.07710980    16.58948140
O          17.24019430    14.10160540    12.21879010
H          17.98978040    14.06507110    11.62463570
H          17.30438230    13.29811290    12.73503780
O          12.39974310     2.19497060     8.26889800
H          11.92563920     2.92842630     7.87710810
H          11.74571320     1.50019600     8.34483530
O          14.00649450     0.45097300    15.74877550
H          14.35631470    -0.17466020    15.11439320
H          14.19113540     0.05641320    16.60110280
O           3.67886230    13.68297670     3.15550660
H           3.50132540    12.87268070     3.63313820
H           3.83813640    13.40020940     2.25500300
O          12.55085660     8.73995300    13.43119050
H          13.38046360     8.96173290    13.00834750
H          12.37278650     7.84160040    13.15282820
O           1.88946620     0.52542540     0.49044090
H           1.29910360     1.16464570     0.88931420
H           1.31442920    -0.04845670    -0.01574470
O           8.40577980     0.17135190    14.60136220
H           8.61729150     0.89011340    15.19707780
H           9.25580790    -0.19222410    14.35337830
O          15.60141660     4.77088690     4.62030980
H          15.84822460     4.33021160     3.80721520
H          14.64435480     4.75464730     4.62056350
O          10.92170240    10.01126100    10.26539990
H          11.73200320     9.59267620    10.55597020
H          11.20784850    10.68390460     9.64741710
O          11.02188010    11.44378760    14.07075120
H          11.55993750    10.76482110    13.66365050
H          11.64811990    11.99967580    14.53447820
O           6.92721370    15.70718290    -0.00161980
H           6.95084760    16.38571930     0.67310950
H           7.70612340    15.87091160    -0.53333810
O          15.41082380     7.13073210    12.67781260
H          14.66202070     6.87591080    13.21687890
H          15.23663620     6.73535680    11.82366370
O          15.06996350    10.81541060     9.36336710
H          15.94357970    11.12201210     9.12042520
H          15.22896290    10.03306670     9.89146610
O           6.48272610     1.99466470    11.65530680
H           5.66701600     2.47852090    11.78466510
H           6.53803920     1.41167020    12.41246700
O           8.15316870     4.05615850     6.03875210
H           8.67662720     4.71734710     6.49157910
H           7.34391120     4.51053620     5.80449720
O          11.99144080     6.52027130     4.21943190
H          12.30245110     7.35006330     3.85756350
H          11.19025140     6.33125640     3.73096420
O           7.22427940     8.89724060     4.11010500
H           6.82476430     9.68822380     4.47199770
H           7.42504020     9.12421700     3.20213510
O           5.81188200    14.90419770    12.54785440
H           4.93205740    14.85719200    12.17378230
H           5.69571110    15.37120630    13.37528420
O          17.76002310     3.05793170     8.48646830
H          17.61025050     3.81747030     7.92352870
H          17.60080910     2.30390740     7.91872740
O           8.32482340     7.51187280    14.74361420
H           8.56950090     8.13601400    15.42685030
H           7.40995980     7.30011800    14.92912960
O           7.13961410    12.05397890    14.52874570
H           7.39910510    12.78081700    15.09496400
H           6.18440530    12.03407860    14.58715150
O          13.27469440     8.48464490    10.47104170
H          13.79842570     8.09774880     9.76943780
H          12.96138950     7.73510460    10.97726350
O          15.76815220     8.14486120     6.67512420
H          14.95318410     8.61741350     6.50555750
H          16.44451140     8.82209210     6.66378310
O           0.52398470     1.86085180    13.69271180
H          -0.10379000     2.28933670    13.11087800
H          -0.01591180     1.45909450    14.37339880
O          14.68569850     1.87321230     6.81535580
H          13.95811180     1.87486700     7.43732500
H          14.53937050     2.64859910     6.27351140
O          16.88187600     5.44112110     1.73647180
H          17.22845650     5.25347280     0.86417480
H          17.18772130     4.71307330     2.27743120
O           5.34045410     8.04589650    15.64474870
H           4.77463340     8.18471720    14.88527010
H           4.86660100     8.44749160    16.37304690
O          12.91016960     3.60363150    10.69013120
H          13.71255300     4.11411570    10.58141610
H          12.80474950     3.14295480     9.85772800
O           2.46854140     5.45698120    13.35154910
H           3.02294990     6.20173840    13.11874290
H           1.61539160     5.84501740    13.54595850
O           3.74380660    15.64701370    10.45487880
H           3.38917330    16.21602060    11.13803200
H           4.19100090    16.24355890     9.85455990
O           6.85866070     9.97864820     1.32988600
H           7.39597610     9.38872720     0.80119280
H           7.31463810    10.81926820     1.28896380
O           2.24519420    12.00751690    13.40102010
H           2.26702380    12.91057490    13.08441160
H           1.94198070    11.49761010    12.64982800
O           0.73895250     8.16639610     7.83880330
H           0.15716920     8.92316530     7.76766730
H           1.48595040     8.48532870     8.34527020
O           3.99718930     2.96042680     2.45429280
H           3.19088340     3.40174750     2.18720220
H           4.20688820     2.38084080     1.72194150
O           7.62953660     4.96730800     2.45871930
H           7.62271500     4.22523070     1.85414830
H           6.89956670     5.51627450     2.17234230
O          -0.13645480    16.03905110     4.19582030
H           0.80964310    16.06783290     4.33830600
H          -0.51392480    16.20695500     5.05927610
O           5.65293980     7.84465310    12.56942750
H           4.83798790     7.71725460    12.08377930
H           5.67715170     8.78345970    12.75459580
O          16.99867820     1.50378470    16.03066640
H          16.10034940     1.17432260    16.05695920
O          17.27440640    10.74119190     6.54707100
H          17.31650350    11.30901910     7.31650730
H          17.91260720    11.11417200     5.93894390
O          14.42327690     0.37151860     3.94931170
H          15.06569390     0.33976220     4.65820120
H          13.74141980     0.96168280     4.27025990
O           8.95869730     6.71597860     4.52322530
H           8.42172240     7.48981710     4.35274360
H           8.34000210     5.98588990     4.50277710
O           8.08213520    12.90403940     1.50603720
H           8.65931700    13.60662170     1.20691730
H           8.66545200    12.15813830     1.64605950
O          12.27419760     6.28250980    11.69043060
H          12.55550670     5.82021190    12.47997380
H          11.70544720     5.65958980    11.23796560
O           3.30441640    13.04925250     9.16698460
H           3.68742160    13.84558770     9.53493690
H           3.95792940    12.37001710     9.33369160
O           4.97542100    10.73900030    12.66277410
H           5.25070190    11.37326050    12.00083260
H           4.34895130    11.21676830    13.20637890
O          12.79782580     4.56702570     5.96627330
H          12.57505700     5.39413260     5.53907250
H          12.42125610     3.89497730     5.39813760
O          16.43363190    10.31367490    13.67161270
H          16.12342450    10.03976150    12.80849270
H          17.11338230     9.67776010    13.89473530
O          10.21204760     3.46320700     0.43612440
H          10.55807400     4.35262540     0.50982900
H          10.67411610     3.08778640    -0.31339790
O          18.16412930     3.20392180     4.44934270
H          17.35212520     3.45861270     4.88753560
H          18.61105920     2.64102840     5.08151100
O          15.25008110    14.30781460     9.12070940
H          15.41236210    14.89039990     9.86265950
H          14.29650020    14.23856350     9.07465840
O          17.09255220     5.01936100     6.85952760
H          17.08698270     5.91581250     7.19504980
H          16.33865360     4.97917370     6.27109340
O          12.72478100     8.88617710     2.92388340
H          13.17831520     9.60122010     3.37025980
H          13.36914160     8.54349040     2.30453180
O           3.25688430     0.64956330    12.47641090
H           3.00909690     1.57367280    12.44717880
H           4.01809310     0.62392190    13.05618290
O           2.92988850     4.75643630     9.44596580
H           2.64262940     4.28184030     8.66591930
H           3.43829800     4.11533980     9.94270230
O           6.18937490     5.38525150    11.86975670
H           6.00741390     6.26250460    12.20672800
H           6.14689920     5.48058990    10.91826440
O           0.90512540    12.71926590    11.01654620
H           1.54565420    13.02241610    10.37307550
H           0.99068580    11.76592830    11.00886920
O          18.09728810     4.21250920    16.07824520
H          18.13912200     4.79494480    15.31979180
H          17.61154750     3.44863940    15.76712990
O           5.43186470     2.82434540     8.87783620
H           5.93751430     2.74883960     9.68706320
H           5.51196000     3.74554490     8.63043400
O          17.19015880    12.54989910     8.61521530
H          16.37738800    13.03718760     8.75006770
H          17.64378930    12.60325340     9.45640850
O           8.30046270    15.63023850    11.57138820
H           8.85204410    15.81433490    12.33171650
H           7.56489470    15.12985040    11.92463590
O           0.71045620    14.30376910    16.29992290
H           0.07349520    13.93323800    15.68900490
H           0.20638260    14.47880840    17.09459500
O          10.61014180     8.48698430     1.12013100
H          10.81968020     9.06942180     1.85026220
H          10.22916410     9.06217770     0.45662450
O           5.64529130    13.82943820     1.18498850
H           6.36974910    13.25951290     1.44301460
H           6.04905220    14.49019720     0.62231020
O          13.17838760    12.86678600    14.54430580
H          13.29286860    13.81068230    14.43391700
H          13.62949180    12.48134330    13.79319290
O           9.04339030     0.99657390     0.81140470
H           8.35036280     0.82581090     1.44920020
H           9.43552300     1.82111500     1.09879920
O           5.14282700     5.76845740     1.17957540
H           5.25677010     5.02912520     0.58238550
H           5.40043740     6.53360510     0.66536090
O           0.98242310     0.78163960    10.65547080
H           1.76746880     1.22952030    10.97065070
H           0.26897510     1.39404250    10.83487800
O           0.91864660     1.75872090     6.52790500
H           1.65736040     2.31829980     6.76749850
H           1.08347450     0.93497800     6.98671910
O          17.96685220     1.15062280     2.13415430
H          18.24079320     1.85312800     2.72379490
H          17.63080410     0.46791410     2.71485230
O          11.58597090     2.07034060    14.93101220
H          12.23604490     1.51681850    15.36373230
H          11.57520390     1.76320310    14.02449040
O           5.32356550     0.05850840     5.76625920
H           5.84111790     0.71637680     5.30195190
H           4.44314670     0.14460420     5.40063380
O          13.12410260     9.30354400    16.22456930
H          13.15443710     9.11878680    15.28585910
H          12.64515590     8.56411840    16.59885600
O          13.93806740     6.69047210     8.38141820
H          14.71805290     6.83031320     7.84448290
H          13.20953370     6.95137020     7.81803320
O           8.95496750    16.43220330     9.01183130
H           8.73646160    16.31886480     9.93684010
H           9.01079080    17.38039970     8.89335060
O          11.31507210     5.78498130     1.48843050
H          10.96037770     6.63876680     1.24049230
H          12.25966740     5.92687030     1.55038690
O           2.27208110     8.32421880     3.68673490
H           2.77569750     7.51651050     3.78778050
H           1.37341490     8.07466410     3.90203260
O           1.39447530     5.52599720     4.03189370
H           1.62707790     5.42687650     3.10869100
H           0.90881140     4.72875020     4.24345870
