1358
Conf 1. Box X: 20.357 0.000 0.000 Y: 0.000 26.467 0.000 Z: 0.000 0.000 25.564
N           7.95145610    14.26499650    12.98551750
H           8.31121440    13.86018280    12.11942480
C           6.81351570    13.62552830    13.51442150
C           5.93108560    14.72231770    14.03234480
C           6.61121420    15.83507250    13.83710480
C           7.84496780    15.63691430    13.12683490
C           4.55962370    14.41812040    14.57194900
H           4.03118420    15.30820370    14.95448300
H           4.63504310    13.78582000    15.47324370
H           3.92733760    13.88748170    13.83951190
O           6.54781100    12.48330120    13.53699680
C           6.01545520    17.14907070    14.02371030
H           4.93417740    17.16710280    13.83955760
C           6.52033710    18.23752020    14.53846170
H           5.94579510    19.11163140    14.86017040
H           7.55998130    18.17442890    14.87435340
C           8.66668420    16.63149640    12.59930800
H           8.44983390    17.69584660    12.75272560
N          10.66191480    15.52951340    11.75709340
H          10.43462560    14.65174010    12.22071460
C           9.84994320    16.58145900    11.79067040
C          10.38741400    17.66435050    10.99720000
C          11.60291670    17.18716240    10.49100110
C          11.80485340    15.80367760    10.97204400
C           9.75176430    19.01069450    10.75538830
H           8.75168420    19.01477810    10.28886030
H          10.51169490    19.51502610    10.13411900
H           9.66787150    19.49387740    11.74398420
C          12.94055650    15.05092330    10.83695980
H          13.67701050    15.63815400    10.27573390
N          12.57699870    12.67103580    11.72883420
H          11.71901510    12.69741250    12.27680210
C          13.35310270    13.70074460    11.17556380
C          14.65030000    13.17548370    11.05717660
C          14.61457060    11.91291240    11.57322880
C          13.34784700    11.67953870    12.07132150
C          15.85777570    11.10237600    11.82828710
H          16.35183530    11.18158050    10.84469220
H          15.71588420    10.01106450    11.91032980
H          16.55885310    11.51917360    12.57165340
C          12.96194360    10.54915430    12.83865930
H          13.82662870     9.99083420    13.21652030
N          10.45458980    10.41806220    12.46091270
H          10.39871600    11.00443650    11.62636760
C          11.71906090    10.00744250    13.00723840
C          11.46804430     8.77246280    13.82622150
C          10.14342400     8.45646670    13.68461990
C           9.49416920     9.44464210    12.74273680
C          12.50737670     8.03269390    14.59788890
H          13.33742050     7.68264010    13.96046070
H          12.18528080     7.17659190    15.21527860
H          13.01280780     8.62901880    15.37683680
O           8.36596780     9.56071000    12.28001400
C           9.46760270     7.39414790    14.43743130
H          10.11727240     6.70983220    14.99584200
C           8.13311200     7.37010860    14.41216660
H           7.71034670     6.58081250    15.04140850
H           7.50441410     8.14787200    13.96776580
H          15.57634540    13.58880140    10.66175460
H          12.26636700    17.70517160     9.80089190
O          14.16426660    23.37783050    14.86884690
H          13.26739980    23.70988660    14.82883450
H          14.10578350    22.59553150    15.41731830
O           7.81010870    16.42642400     9.41787530
H           8.54969880    16.29067230    10.01016810
H           8.17107770    16.94515990     8.69895550
O           2.65257550    15.65759560     2.72142170
H           2.18599030    16.37484360     3.15047500
H           2.01199630    14.94771290     2.67717120
O          14.78938770     8.43772700     9.60264210
H          14.13469790     9.03635410     9.24311640
H          15.00740910     7.85589030     8.87451840
O          10.12401390    13.32652660    17.63260840
H           9.93290810    13.17908950    18.55887600
H          10.67042540    12.58251380    17.37940600
O           5.03617950     5.56588220    18.03893660
H           4.35918520     4.90034290    17.91658780
H           5.73259640     5.11430600    18.51571080
O          16.27766230    19.94790650    19.70726970
H          16.07245450    20.12734600    20.62483410
H          15.91716670    20.69559100    19.23056980
O           1.56139850    15.34426020    25.10671420
H           1.79717730    14.87008000    25.90408130
H           0.64275940    15.12036990    24.95768930
O           5.33995530     5.36164330    14.92200850
H           5.40267660     5.18900350    15.86141970
H           5.56081870     4.52648930    14.50973510
O           1.14914510    25.81456570    13.70970540
H           2.01703550    26.20963860    13.62654500
H           0.94648750    25.87595370    14.64319040
O          14.81988720    16.23449900    17.80898670
H          15.32015610    16.06138800    17.01149370
H          15.48151110    16.46286960    18.46192930
O           9.69770910     5.69883920    11.18142510
H           9.82828330     5.86184840    12.11556050
H           8.91625120     5.14751720    11.14143940
O          17.92076680    10.67959500     6.29704140
H          17.00336070    10.87864020     6.48406740
H          17.88603780    10.00442700     5.61941770
O          15.61343770    12.30481620    22.25740810
H          16.16882320    12.51466270    21.50658040
H          16.00332830    11.51407050    22.63014980
O           6.88866280     4.00985810     6.34947160
H           6.64678480     4.71292500     6.95231770
H           6.16489740     3.97085190     5.72427230
O          17.21388630    12.59553810    25.39561840
H          17.92658420    13.15103150    25.07983400
H          16.85325810    13.07096860    26.14404680
O           3.06424620    24.88301090     7.43067500
H           2.39636330    24.20685770     7.31673770
H           3.18021300    24.94779210     8.37861350
O           0.99532990    10.94964980     0.87381500
H           0.81854250    10.44748210     1.66930620
H           0.21549040    10.82421490     0.33312310
O          18.83057790     9.07899860     8.46791360
H          18.50138280     9.49269200     7.66996620
H          18.87799640     8.14750480     8.25273420
O          16.28498460    20.45515250    15.57226940
H          15.66576770    20.00924490    16.15016940
H          17.14392470    20.13764950    15.85092160
O          16.57066730    25.72804830    19.02729030
H          16.64317890    24.98049550    18.43387600
H          16.18194010    25.36522100    19.82320400
O          11.89887520     1.73050790    12.92198940
H          11.99739070     2.08853480    12.03975110
H          12.73688030     1.91006470    13.34829520
O           2.53004930     4.40289590    19.45948790
H           2.83704280     3.49636360    19.47312360
H           2.15087800     4.54044720    20.32755470
O           0.31873520    18.37795450    21.24366570
H           0.30292710    19.27830700    20.91909030
H           1.16150950    18.03215980    20.94974710
O          18.93513300    22.82622720     1.52697690
H          19.00250050    22.70109940     2.47356940
H          18.12545390    22.37769320     1.28311380
O           1.38572030     6.86903000     6.51468610
H           2.25569820     6.53739550     6.29244660
H           1.15583520     6.41427040     7.32498120
O           7.36948780     1.09901480    23.68251040
H           7.05193570     1.52997370    24.47602650
H           6.66219140     0.50398520    23.43370630
O           0.96057610    19.77998350     2.53110840
H           1.20614810    19.16083150     3.21855020
H           1.50077530    20.55194280     2.69991060
O           4.07269760     3.98008920    10.41680910
H           4.40892510     4.75681920    10.86388020
H           3.15887550     3.92018990    10.69532780
O           9.43205170    10.18420310    20.09664920
H          10.05514340    10.26013370    19.37399860
H           8.96186540     9.36876680    19.92280960
O          12.34927370    21.15949250    15.93139270
H          13.15937900    20.71624760    16.18337630
H          12.09995080    21.66197970    16.70700650
O           7.10550360    25.51600650    16.01218410
H           7.81923580    25.20165250    16.56716160
H           6.33151530    25.05233190    16.33184050
O           1.82589440     3.89423990     3.23577830
H           1.31078050     4.59378050     2.83386850
H           1.18918130     3.20381310     3.42054510
O           4.25425240     6.37601950     6.12491460
H           4.62089250     6.35935310     7.00895550
H           4.58142570     7.19152930     5.74526640
O           0.79621510     1.65881300    24.97182080
H           1.14796260     2.22394750    24.28397750
H          -0.13142870     1.56625390    24.75470160
O           1.51980500    22.85052680     6.38990640
H           0.70066080    23.07866290     5.95037510
H           1.93641380    22.21664430     5.80607270
O          11.07453540    11.61346720     1.93018190
H          10.18914130    11.33107570     2.15945200
H          11.11876110    11.51451870     0.97913740
O           1.60870840    24.70894620    23.45513730
H           0.91362480    24.07590480    23.63499830
H           1.44257260    25.42703820    24.06585500
O          15.93584060    19.06953620    25.63560680
H          15.92813010    18.71845050    24.74515150
H          16.46521950    19.86471750    25.57496640
O           9.06777000     1.46914460    19.91520310
H           8.59511950     1.75812170    19.13460920
H           8.42488770     1.53233120    20.62156110
O           2.11133670     8.02826980     0.38097560
H           2.22964000     7.92239190     1.32491720
H           2.12531190     8.97530750     0.24257370
O          19.02217480     7.31554130     0.84433880
H          19.19863320     8.24633880     0.70755430
H          19.38906670     6.88611510     0.07154080
O           3.23426910     1.84776690     8.92469020
H           3.71599290     2.47740130     9.46109960
H           3.91226480     1.29066230     8.54234500
O           7.35255620    14.01840400    16.83537100
H           7.85943750    13.68600270    16.09455110
H           8.00827220    14.22077080    17.50269130
O           3.63795380    18.80536270    12.45836070
H           4.12172790    19.61494060    12.62200740
H           4.24176690    18.26418880    11.94966320
O          18.54393010    16.85146140     5.69891690
H          18.33347510    16.72527310     4.77370500
H          18.13653370    17.68751720     5.92534880
O          17.38056760     8.71309470    20.42541890
H          17.07996560     8.22408100    19.65943150
H          17.02206040     9.59229370    20.30412290
O           1.41383840     6.46381280    13.73250010
H           0.85353570     6.59309200    12.96726800
H           1.23051930     7.21731760    14.29362110
O          15.57526590    15.15104580     8.32979110
H          15.86739350    15.91380020     8.82888790
H          16.37234880    14.81144430     7.92290070
O           7.14140180     0.74706240    11.17694280
H           7.78681660     0.65494820    11.87779050
H           6.51437470     0.04119370    11.33448410
O          16.38357350     1.13946150     7.85270830
H          17.20675850     0.78089240     7.52100610
H          15.73959160     0.44998620     7.69102330
O          16.66545680    12.03327470    19.47772980
H          17.37028500    11.49921990    19.11134720
H          16.82200620    12.90994260    19.12676240
O          18.74205590    21.84612460    10.51708220
H          18.65715220    22.68683820    10.06739040
H          18.23948670    21.95454600    11.32448580
O           0.73815730    15.09741690    20.30977440
H           1.26729680    14.30219750    20.37197300
H           1.01603890    15.62896630    21.05574230
O          18.49021150    19.16485600     2.45871970
H          18.88977050    18.84663010     1.64920270
H          19.23004910    19.44979100     2.99508330
O           7.13032340     4.95458840    24.19690510
H           8.04097560     5.24738220    24.16201970
H           7.02477840     4.60528370    25.08182140
O           1.62026690    12.34479240    12.79864120
H           1.71837900    12.96995450    12.08046530
H           2.09106730    11.56532380    12.50366780
O          19.30908390    25.43095020     4.23401780
H          18.38948820    25.69654850     4.22826910
H          19.28605270    24.49201580     4.41869020
O           8.65685370    12.22631450    11.02861790
H           8.84031960    12.20408730    10.08942790
H           8.37997820    11.33468720    11.23973850
O          12.07251930     5.00070290    23.23330120
H          12.50197120     4.30516770    22.73527150
H          12.02356240     4.66042950    24.12663650
O          13.91947360    11.18060780     2.18887280
H          14.23327260    10.53757860     2.82469990
H          12.98768230    11.27697280     2.38562350
O           6.85289760    11.31473060    19.62475200
H           7.78259520    11.43100450    19.42885780
H           6.80476430    10.46462630    20.06205940
O          12.44440360     1.64101430     3.44278760
H          11.93502620     2.23815060     3.99068780
H          13.01353450     1.17829040     4.05777500
O          12.01536270     8.23952010    18.79042430
H          11.38061620     8.49572560    18.12133030
H          12.42926310     9.06105610    19.05499080
O          19.84765240     7.34642890    23.65287400
H          18.90539550     7.28988460    23.49416540
H          20.00427820     8.27248480    23.83759120
O           5.44141100     8.58969120     5.20870070
H           5.38705920     9.47231200     5.57511190
H           5.46492290     8.72466950     4.26135680
O          18.88245390    15.08576300     9.92477420
H          19.73068240    15.45901580     9.68514060
H          18.52198410    14.76098350     9.09966090
O          18.82157900    16.86287880    19.19751170
H          19.56173900    16.39614490    19.58552550
H          19.21556850    17.42266850    18.52845380
O           1.19208430    24.01142880    17.72052000
H           0.51225670    23.98075680    18.39366720
H           1.98462580    23.71312900    18.16675760
O           3.15891360    22.06164360    18.69581410
H           3.84540460    22.22959900    18.05025100
H           3.52721120    22.37149430    19.52320860
O           9.35267160    21.54452320    17.52244570
H           8.53378490    21.75872230    17.96940800
H           9.08446500    21.01332090    16.77269740
O           0.48328690    22.04241180    14.47009660
H           0.39650830    22.65789990    13.74217030
H           0.56849200    21.18612860    14.05087090
O          14.65589900    21.82565310    18.61651990
H          14.69510270    22.55562780    19.23444560
H          13.81177430    21.40936090    18.79083440
O           5.04895110    25.30677990    11.45607380
H           4.60397240    24.94928550    12.22446440
H           4.38762000    25.85011100    11.02751350
O          11.18006520     9.98950200     6.17104670
H          11.37025550     9.65198900     5.29575010
H          10.23212150     9.89435960     6.26368190
O           8.75085830    11.82406810    15.22124480
H           7.91582680    11.98922250    14.78343390
H           8.50988200    11.39776230    16.04369540
O          13.50652890     2.06054330    17.77778240
H          12.61643790     2.32804820    18.00671580
H          13.39701560     1.49044420    17.01671410
O           7.80974910    24.62451740    13.56589890
H           8.41831210    25.35403440    13.68288610
H           7.16086770    24.74024010    14.26001170
O          14.47694970    22.73344420    12.24469570
H          14.12777710    23.08310320    13.06448170
H          14.76292040    23.50604250    11.75730900
O          14.78806110    12.69640350    15.84739690
H          14.22404480    13.18030550    16.45068550
H          14.75215150    13.19696620    15.03230290
O          11.19119450    25.00903700    11.63169670
H          12.12603570    24.87054060    11.47963910
H          10.85299780    25.30823140    10.78769490
O           8.09735680     3.16457610    11.34277730
H           7.43228480     2.56843330    10.99850270
H           8.72837160     3.25736760    10.62902640
O           5.32971100    15.87036990     6.45215080
H           5.67225550    16.65392490     6.88219310
H           4.97481060    16.18851660     5.62205460
O          10.54161830    20.03024860     6.67160270
H          10.80117130    19.11127850     6.73760560
H           9.77303220    20.02167320     6.10113480
O          11.50381760    17.97106740    19.39757350
H          10.80128960    17.34422490    19.57006650
H          12.01089480    17.99183460    20.20915990
O           7.00838330    15.15384770    19.49453930
H           6.21433160    15.32442760    20.00111200
H           6.77820590    15.39942650    18.59847070
O          14.03324790    19.61123090     2.00553560
H          14.69273280    19.24058340     1.41907920
H          14.37912650    19.45483970     2.88425110
O          20.67357250     0.41958740    20.08683010
H          19.90933040     0.79202320    20.52667050
H          20.45774840    -0.50617110    19.97447970
O           8.46097760    23.42146110     0.63900610
H           8.62043760    23.06938170    -0.23669060
H           8.68532470    22.70309450     1.23048630
O          15.32376860    20.27223590     8.24080180
H          14.81160070    21.07721330     8.31779380
H          16.08385660    20.41714670     8.80427070
O          20.32158090     5.34000680     1.99427450
H          19.91177750     6.15158460     1.69488370
H          19.84470180     4.64780280     1.53637440
O          17.66589740    19.58667180     9.57321930
H          18.20051960    18.79444890     9.62607380
H          18.19312100    20.26048850    10.00245090
O           1.24153420     9.19119640    14.64414600
H           0.37762170     9.53279970    14.41350750
H           1.74890800     9.25700660    13.83514980
O          18.79125020    10.52867790    17.84294130
H          18.64371110     9.61433320    18.08467860
H          19.60031890    10.51368710    17.33165360
O          15.36011890     5.86617570    13.67963220
H          15.55433750     5.94196840    14.61385150
H          14.44577790     5.58482740    13.64714050
O           9.11279490    14.19478130     3.39453460
H          10.05155180    14.35818390     3.30361990
H           8.71620270    14.66057870     2.65834090
O          19.08052060    14.26058100    24.38981630
H          19.69544790    13.98824020    23.70869260
H          18.59810640    14.98937700    23.99947740
O           9.67515560    21.35383420     2.01275970
H          10.32762050    20.75882530     1.64332140
H           8.96495530    20.78087620     2.30183650
O          13.37588210    18.11713220    21.53829960
H          13.47105790    17.18795010    21.74757000
H          14.02979180    18.55378530    22.08416560
O           1.24633120    19.84892850    13.04275510
H           0.58276850    19.32139020    12.59820940
H           2.07319550    19.40805440    12.84741590
O           0.76585780    13.03100780    22.72945210
H           1.21155740    12.82433890    21.90794560
H           1.45927910    13.01375680    23.38907430
O          13.03099440    25.67900470    21.76377110
H          12.66161920    26.51529500    21.48019980
H          13.77292540    25.92056660    22.31822400
O           7.46796610    22.44071390    21.58879470
H           7.83427520    22.42707250    20.70456500
H           8.23237130    22.46637540    22.16434480
O           7.44332790     8.50348660    19.67244720
H           7.75058170     7.59760860    19.70726200
H           6.77929880     8.50484660    18.98303030
O           1.54441930     7.13117120    21.08561130
H           1.01015380     7.81889150    21.48289110
H           1.29022500     6.33288100    21.54858970
O           2.24071600    14.99754050    11.54431530
H           2.06504730    14.30215740    10.91042520
H           2.81820580    15.60398390    11.08067510
O          13.39561650     5.33873080    17.12684820
H          12.74042320     4.79267360    16.69236560
H          12.90597250     5.80940820    17.80134200
O           4.83071420    11.29965780     0.51661010
H           4.83719160    10.56648540     1.13195460
H           5.29597570    12.00018410     0.97380490
O          15.93154430    19.05585480     4.02908090
H          16.50276180    18.66695400     3.36673880
H          16.49552150    19.17128560     4.79382750
O           5.07349110    21.36664960    12.92518420
H           6.01498890    21.19755550    12.89028930
H           4.86668300    21.74714090    12.07155230
O          20.02615740     5.14932250    18.14794350
H          20.92818450     5.44264460    18.27655790
H          20.11010170     4.25740580    17.81079480
O           2.92416480     3.56804280    16.28199200
H           2.46411610     3.31357000    17.08188440
H           3.20155240     2.73940230    15.89129450
O           6.36377000     3.37737420    13.38452340
H           6.70134540     2.57682900    13.78627200
H           7.05430510     3.65222980    12.78132630
O          18.28326030    20.54842000    17.91756820
H          17.71568680    20.00451850    18.46370320
H          19.16917040    20.24575040    18.11703680
O          19.29427150    16.02110670    15.05019570
H          19.89344410    16.19995690    14.32546420
H          19.05234340    15.10160920    14.93960760
O           9.40796570    22.93866350    23.77260590
H           9.85260680    22.09279630    23.71752550
H           9.88519380    23.50033000    23.16185570
O          13.75691220    25.50330350     4.58253430
H          13.60479550    24.89420510     3.85997630
H          13.15182500    25.21844480     5.26733920
O           0.20431710     9.68055150     3.13310190
H           0.00833140     8.77852440     3.38641500
H           0.33747110    10.13880250     3.96286630
O          16.03989600    15.91183190    15.52997970
H          16.06275750    16.09352490    14.59045980
H          16.50556760    15.08091450    15.62463950
O           0.89113810     2.17065720    17.80927470
H           0.69101240     1.69083480    18.61298750
H           0.56000720     1.61058620    17.10720440
O          16.24643520     2.29836180    10.90115550
H          15.50363450     1.79046630    10.57477760
H          16.78357890     2.46228790    10.12601850
O          15.58617400    21.18126300    22.20660780
H          15.68258000    22.12103840    22.05246930
H          14.68120860    20.98976900    21.96043400
O           3.83092980     6.05698350    12.48255920
H           4.33303360     5.69784020    13.21409230
H           2.97539230     6.26459600    12.85830500
O          16.66657260    25.14065360    15.12076380
H          17.19221690    24.36225320    15.30521390
H          15.76065730    24.84404370    15.20777130
O           5.81937650    24.67867850    21.86604310
H           5.46320200    24.75327110    20.98071290
H           6.28637080    23.84312630    21.86672400
O          15.95407960     5.28307870    16.68089680
H          15.05199530     5.07901430    16.92753980
H          16.37867740     4.42923070    16.59787560
O          -0.09395980    20.00638580     6.40151740
H          -0.25070760    20.82794570     5.93600610
H           0.70706280    20.16342930     6.90144780
O           9.60969450     0.31785420    13.12578200
H          10.28791710     0.96922350    13.30456730
H           9.93543050    -0.16474250    12.36602590
O          10.17339800     9.55610470    17.13041110
H          10.35780050    10.35381030    16.63453290
H           9.26873020     9.33831410    16.90596770
O          17.97779850    20.65419390    23.93332670
H          17.11303140    20.68859480    23.52439500
H          18.33610730    21.53321650    23.81019020
O          16.21733670     2.48731090     2.73306800
H          17.11503600     2.28432890     2.47007040
H          15.68929860     2.28068590     1.96189060
O           4.71952920    11.05575180     6.53203250
H           5.12817670    11.37463090     7.33674000
H           4.32091430    11.83340450     6.14139800
O          13.37070560     3.69014640    20.79483220
H          12.98953910     2.81556800    20.71700670
H          12.73179530     4.26788570    20.37740900
O          17.55148510    19.20205310     6.61073260
H          17.20276450    19.64756010     7.38283970
H          18.43986510    19.54580880     6.51669170
O           7.54465340    21.36535640    11.36040690
H           7.50564000    22.20149230    10.89609150
H           8.47649290    21.23028370    11.53263470
O          14.31048300     6.39680480    22.84165380
H          14.09281160     7.15457530    23.38445660
H          13.59399510     5.78029630    22.99263380
O          15.36929230    22.26180270     3.30018090
H          15.86358260    22.77715490     3.93761400
H          14.75010490    21.75775530     3.82817410
O           5.86316490     1.08020850     7.76481010
H           5.94165520     1.42835830     6.87663030
H           6.76700210     0.94968580     8.05164530
O           3.05917260    25.34974480    20.93561550
H           2.21721740    25.80507660    20.93150330
H           3.15456680    25.03074260    21.83304020
O          14.26541040     1.71999050     1.07413420
H          13.63291070     1.39973400     0.43100730
H          13.79094790     1.70377230     1.90531000
O          14.53351780     9.14510540     4.06392240
H          14.31310840     8.24027060     4.28511190
H          14.67020230     9.57193950     4.90971230
O          12.92723460     0.95259120     7.99758770
H          13.13380720     0.10293910     7.60816340
H          13.01755240     1.57507470     7.27606920
O           2.10980700     9.67349620     6.35557220
H           2.07995510     8.89195820     6.90742250
H           3.02051830     9.96456150     6.40160800
O           0.73661520    16.58432390    13.12953190
H           1.15396020    15.86146830    12.66098590
H           1.42023370    17.25062560    13.19980430
O           8.22223090    15.20491890     5.79237890
H           8.41673090    14.83129410     4.93284080
H           7.27741770    15.09072780     5.89494470
O           4.30427650     8.26781460    23.16913990
H           3.92426200     8.92449000    22.58553120
H           3.65015700     7.56978320    23.20247650
O          14.17290970    14.88407800     4.95242830
H          15.10976790    15.03957460     5.07221750
H          13.84683230    15.68716910     4.54628900
O          11.50807090    20.85333060    19.34490010
H          10.74090290    21.02125550    18.79764750
H          11.70903110    19.92898940    19.19847870
O          13.70773790    20.70673370     5.38007500
H          14.40929130    20.11334610     5.64830540
H          12.94381050    20.41474530     5.87745810
O           9.98717980    20.18500520    15.03774070
H          10.20114800    19.29294400    14.76447680
H          10.80920790    20.53347210    15.38281060
O          15.42208000     6.62494660     7.44450430
H          15.40571020     5.67035060     7.51313920
H          15.07610420     6.80824280     6.57104250
O          19.51255420    12.58979130    19.61115650
H          19.57744980    12.43983170    18.66800690
H          19.73123740    13.51504040    19.72216990
O          15.66328330     3.62142130     7.39077900
H          16.30935670     3.81881520     6.71265360
H          15.87154960     2.72908500     7.66753440
O           1.98683260    18.51343350     9.81451230
H           2.50712110    18.67429160    10.60169410
H           1.62413500    19.36980440     9.58799740
O          17.49876210    14.48659040    18.22785000
H          17.93829920    15.30702880    18.45127680
H          17.54821970    14.44067860    17.27303120
O           8.26124480    12.66579250     7.98632760
H           7.69762280    13.36095430     8.32590390
H           7.86113980    12.41889190     7.15254830
O          16.54762080    16.87164120     2.03381590
H          17.13461110    16.52517890     2.70585580
H          17.05366900    17.56307600     1.60712850
O           8.09158040     2.07363200    17.46004300
H           7.97413540     1.35336300    16.84064670
H           7.21337180     2.24103070    17.80203630
O          12.02166750    17.61040120    16.44560050
H          11.70395570    18.04008870    17.23974230
H          12.87262060    17.24865150    16.69308470
O           5.90705250    14.36318300     8.82874490
H           5.64905500    14.62825870     7.94590710
H           6.55850410    15.01277070     9.09309390
O           8.64172460     1.00344870     1.03168900
H           8.88807010     0.35491940     0.37217800
H           7.72506570     1.20256810     0.84111060
O           9.41357610    26.06313710    17.34875300
H           9.58532620    25.47174640    18.08154870
H           9.91779330    26.85064700    17.55326650
O          12.01444240    14.12443260     2.96990730
H          11.92541890    13.17642880     2.87195630
H          12.66172890    14.23350240     3.66658160
O           4.32347010    15.40996650    20.23102570
H           4.17458060    14.46638010    20.17012790
H           3.73001000    15.70191670    20.92298320
O          11.84061910     0.34391520     0.28934710
H          12.26608280    -0.07215390    -0.46038540
H          11.11724380    -0.24275400     0.51020710
O           5.96110150    16.37371640    17.18454550
H           5.15755510    16.62011530    16.72647090
H           6.22264340    15.54605960    16.78104210
O          12.87412740    24.38640210    24.87535290
H          13.71835990    24.53202440    24.44838910
H          12.71570490    23.44735530    24.77878380
O           5.37556120    14.81764320    23.46448520
H           5.70160100    13.94698050    23.69224550
H           6.15684750    15.37053970    23.45304490
O           7.43107750     9.61695100    16.51022910
H           6.94012400     9.03580090    15.92931560
H           6.88735290     9.68638800    17.29494290
O           2.84970760    10.15928550    21.48464010
H           2.86025140    10.38133720    20.55361180
H           3.21187310    10.93146800    21.91915320
O          13.06725030    15.40310760    24.28511050
H          12.94448950    14.63243580    23.73083110
H          13.87243750    15.22326180    24.77045630
O          17.58308980    13.50520420    15.76875500
H          16.84406850    12.91723160    15.92485240
H          18.16569330    13.00998020    15.19294360
O          11.55360320     8.56972690     3.82011180
H          11.34318920     7.72633080     3.41931100
H          12.38932800     8.82019140     3.42632910
O           7.32996610    19.01218800    20.77120590
H           6.55969910    18.72922130    21.26400380
H           7.11665390    18.81475640    19.85920140
O          11.90569400    24.57367900     6.31816240
H          11.70969390    25.32648850     6.87591980
H          11.10881710    24.04392050     6.34211400
O           3.85881900    18.85814090    16.46898080
H           3.27263740    18.25530430    16.92637630
H           3.28319450    19.36090470    15.89268300
O           6.59309480    25.15817450     5.42680310
H           6.43963860    26.05893140     5.14163830
H           6.97096300    24.72561260     4.66107510
O          17.79800610     0.63810400    16.88733290
H          17.35070800     0.34827450    17.68241500
H          17.41011430     0.11116960    16.18868260
O          10.20346740     6.31108190     0.18179980
H          10.00125410     5.40479280    -0.05053910
H          10.54453370     6.25905320     1.07465880
O           9.07103350    12.87723350    24.28278160
H           9.85804560    12.76312450    24.81553080
H           9.35380360    13.42786220    23.55265810
O          19.09874530    12.24367810    13.65815730
H          18.76321410    11.37392230    13.44095800
H          20.00539400    12.23412320    13.35135460
O           5.40520190    25.16966820    18.75891490
H           4.64823060    25.46592330    19.26434520
H           5.83773520    25.97674940    18.48004720
O           1.07692620    21.11206050    10.20085720
H           0.14621930    21.26873020    10.04126360
H           1.16612910    21.14873700    11.15318680
O          11.84243490    11.65567490    16.44058040
H          11.96342750    11.45293240    15.51295470
H          12.27264120    12.50254630    16.55874820
O           0.93253620    16.10237880     8.97157380
H           1.26438430    16.22657590     8.08236980
H           1.33322810    16.80917170     9.47765730
O           1.47666070     3.92222790    10.99740410
H           1.12158300     3.20060780    10.47835160
H           1.14819620     3.76484250    11.88260080
O           7.24732110    23.71446230    10.24843220
H           6.63583610    23.90028190    10.96102520
H           6.86510750    24.14830400     9.48559190
O           1.32317830    15.19348810    16.29065510
H           1.70451830    14.34805390    16.05389790
H           0.63036070    15.33295350    15.64506530
O           5.26966190     1.54665470    18.23270030
H           4.45381640     1.42859320    18.71920780
H           5.03609560     1.35756250    17.32389640
O           3.76347640     0.27305130     2.92721320
H           4.33218100     0.99994420     2.67337660
H           3.78273110     0.27677970     3.88421300
O          19.46148680     0.81306120    12.61855130
H          20.24399570     0.47362690    13.05294230
H          19.79924960     1.38332890    11.92794230
O          16.00673290     8.96237560    14.36230470
H          16.93079190     9.07899380    14.58308980
H          15.97028260     8.11112210    13.92610550
O           1.71394440     9.38917540    17.28697780
H           1.73923780     9.28251650    16.33607480
H           1.99346260     8.54066660    17.63068580
O          17.32267760     3.11119840    15.81588940
H          17.20294950     2.80628110    14.91648860
H          17.69387250     2.35868070    16.27650070
O           6.96173670     3.32639980    21.95803450
H           7.12438440     4.11128380    22.48122980
H           7.28758240     2.60660510    22.49835970
O          19.37717250    24.12595560    19.53432850
H          18.95378300    23.84327700    20.34492300
H          18.73366550    23.94002720    18.85054400
O           0.23244670     9.42337990    22.04209140
H          -0.33953660     9.85507200    21.40749740
H           1.04756450     9.92411900    22.00930210
O           2.24254130    24.47481920    10.19440840
H           1.49273010    23.96054270    10.49363330
H           1.90977190    25.37022970    10.13328930
O          17.52195930     9.36390690    23.14170460
H          17.86962700    10.06328200    22.58832170
H          16.80334470     8.98990730    22.63185310
O           2.73392770    11.29392340    18.65460010
H           2.31180290    10.64044090    18.09692380
H           3.40961360    11.68245510    18.09897040
O          11.48612980    18.10129170    24.26432230
H          12.13300320    17.39575200    24.26490400
H          10.97566600    17.95755960    23.46745300
O          16.22276500     7.84646320    18.14590070
H          15.87410830     8.47054200    17.50935170
H          16.27851490     7.02036190    17.66560940
O          11.23331260    20.82544140    23.11127660
H          11.12590600    20.33970640    22.29349900
H          11.05298520    20.18256760    23.79715350
O          11.63898280     1.65556260    20.97469330
H          11.20873170     2.09793850    21.70641710
H          10.92440510     1.23858000    20.49330330
O          19.12504010     4.16608720    23.28132250
H          18.78087040     4.82326600    22.67642970
H          18.34887310     3.80474280    23.70937350
O           4.67232610    15.75278000    25.73206900
H           4.81098840    15.36636830    24.86737820
H           3.94681450    16.36461070    25.60744670
O           4.08514690     4.43520120    24.24671750
H           4.94639490     4.69813730    23.92214200
H           3.52550790     5.19430730    24.08302690
O          10.14230160    22.33552930    12.06531910
H          10.25308900    23.27896120    11.94743730
H          10.93186470    21.95209310    11.68348310
O          12.14563850     5.88426160     2.55106310
H          11.70298960     5.31638810     3.18178800
H          13.07121750     5.65303990     2.62897540
O          16.55484770    26.08108520     3.98876050
H          16.29661560    26.97916600     3.78139540
H          15.75535680    25.56840520     3.86958740
O           9.72990510     3.59607030    25.55768970
H           9.85096450     3.21486090    24.68806080
H           9.54362490     2.84699920    26.12375070
O          12.78604510     4.11556240    -0.04271470
H          12.73833270     4.11628910     0.91329520
H          13.72347450     4.10123830    -0.23572790
O           8.21349330    15.70201020     0.33898870
H           7.82753800    16.16757010    -0.40298470
H           9.14040090    15.62024020     0.11451570
O          15.77727320    17.97242930    23.06726070
H          15.57937910    17.14917560    23.51371960
H          16.13771440    17.70565410    22.22159960
O          13.72866630    21.59531590     0.07218160
H          14.17522810    21.23379900     0.83776660
H          12.91601850    21.09338570     0.00971880
O          18.99080280     9.68106170    13.41101070
H          19.02193830     8.78254800    13.73954580
H          18.58083720     9.60690880    12.54923250
O          15.13205430    10.89261910     6.37003950
H          14.54921150    10.72978500     7.11166720
H          14.81227110    11.71048640     5.98916670
O           6.47752860    17.31463620     1.61032620
H           5.76422210    16.77630620     1.26736200
H           7.27391960    16.87535100     1.31196150
O           8.50986860     7.78596880     9.34299280
H           7.62304120     7.92562770     9.67505260
H           8.97516160     7.37144950    10.06956480
O           8.89108280     9.89675520    23.33898350
H           8.09874530     9.37406250    23.21558570
H           8.57326700    10.79458430    23.43452640
O          14.08790780    19.14684490    11.93699650
H          13.48699860    19.05697820    12.67663380
H          13.83962250    19.97485540    11.52591900
O          17.74612620     8.72892570    10.93806840
H          18.10028650     8.88242910    10.06214710
H          16.83881000     8.46424290    10.78656770
O          16.38897510    15.14177610    23.03888890
H          16.09911350    15.05830860    23.94731900
H          16.32402610    14.25504400    22.68432040
O          11.35319610     4.70702700    14.89285470
H          10.84607510     4.10491040    15.43738560
H          11.98348810     4.14706230    14.43964000
O          16.18576430    13.49927230     2.11915920
H          15.67451860    12.69345570     2.19343610
H          16.31805230    13.78322320     3.02364970
O           1.03804490     1.27913640    10.38461690
H           0.47016050     0.53328990    10.19109150
H           1.65092370     1.31048080     9.65002250
O          14.96948720    10.02720360    16.57415960
H          14.92453580     9.51846600    15.76459310
H          14.76348590    10.92269990    16.30605130
O          16.59524730    23.55980680    21.28899570
H          16.33663940    24.02833370    22.08261870
H          17.38706400    23.08372310    21.53919790
O           1.57415290     6.37437920     9.14847950
H           2.29696750     6.70796780     9.67997740
H           1.20191960     5.66309830     9.66977880
O           5.91108040     1.57027890     0.60276070
H           5.30464270     2.11744020     1.10183940
H           5.35398200     1.09861350    -0.01643670
O           3.57495590    23.14820860     0.67958870
H           3.26183990    23.63627620    -0.08197650
H           3.23556420    23.63383670     1.43139400
O           2.87045760    -0.20898200     0.14429080
H           3.11664870    -0.06423590     1.05789410
H           2.11151220     0.35816880     0.00800790
O           5.84654570     5.40106770     8.35519030
H           5.96636820     5.93564220     9.14011380
H           5.42700860     4.60113950     8.67194840
O           8.65673450     8.44713590     0.54331250
H           9.27498630     7.86922650     0.09607880
H           8.00814440     8.66740420    -0.12530190
O          17.24737360     2.12563850    13.34128190
H          16.99977110     2.33166220    12.43990520
H          18.09332280     1.68473770    13.26247410
O           1.62851050    17.64062880     6.71066240
H           0.82905580    18.02274700     7.07272860
H           2.31149200    18.28110120     6.90956450
O           1.15578560    20.71446610    17.03277400
H           0.76579000    21.35276410    16.43552020
H           1.73653510    21.23202130    17.59053610
O          10.50697140    24.17164420    19.17194180
H          11.42630670    24.42470360    19.08819010
H          10.38252540    23.49690060    18.50450900
O           1.48580270    13.32042980     9.58939170
H           1.06387040    14.17736910     9.52724840
H           0.85280900    12.71341510     9.20587540
O           5.18629170    21.68285560    23.17061810
H           6.08137800    21.89868550    22.90895270
H           5.23631380    21.56290630    24.11895370
O           3.02216050    21.20406720     4.25444360
H           2.61956880    21.88290790     3.71284630
H           3.96043870    21.28692820     4.08414600
O          14.35944080    22.72569850     8.47372720
H          13.45081900    22.94085500     8.26314070
H          14.87748340    23.34679030     7.96176000
O           9.75335410    15.96004200    20.29659840
H           8.84272770    15.68329720    20.19459340
H          10.26655960    15.21507550    19.98374180
O           0.99908830     2.47149850     7.34599540
H           1.79341410     2.59790750     7.86493540
H           0.55433280     3.31846810     7.37866930
O           7.80344100    20.23188590     6.08977750
H           6.85084440    20.21731380     6.18240310
H           8.05874250    21.10818860     6.37813140
O          17.76811410    18.19107820    15.85094450
H          16.96585660    17.72306060    15.61948780
H          18.47227480    17.57746120    15.64151380
O           7.37504860     1.30179670    14.60960390
H           8.20595930     1.02917810    14.22037700
H           7.16281220     0.60662870    15.23244480
O           8.65651420     9.91543390     2.79359390
H           8.93759630     9.32748790     3.49469710
H           8.75107670     9.39740370     1.99426110
O          19.88202290    17.29070280     0.74194660
H          20.71298790    17.72790530     0.92791310
H          19.87466810    17.18494800    -0.20936500
O          18.51400180     2.99696970     9.14047810
H          18.50819400     2.19945480     8.61116790
H          19.10926440     3.58697750     8.67810730
O           1.18932340    11.75473500     4.93963480
H           1.39940170    11.09297560     5.59855320
H           1.97448060    12.29987810     4.88886790
O           8.13195710     5.65216020     2.93445630
H           8.33841990     6.29226680     3.61553430
H           7.40058420     6.04063650     2.45444350
O           4.78636650    16.81422230     3.93762540
H           5.40783410    17.15886310     3.29635190
H           4.21362970    16.23864940     3.43075320
O          14.05546670    10.76732830    19.08071520
H          14.31743910    10.39083670    18.24056240
H          14.69600010    11.45987420    19.24297900
O          10.72966380    12.10109040     8.95517830
H          10.01107500    12.41942120     8.40880110
H          11.47473340    12.65239050     8.71607020
O           6.90780310    19.97543530     2.57149080
H           7.68818810    19.76433180     3.08400010
H           6.75348900    19.19581410     2.03800250
O           5.49879880    11.97897620    17.48954580
H           5.97686670    12.80788040    17.46500590
H           5.63743350    11.64871600    18.37720490
O          12.67784790    18.46996880    14.07279970
H          12.55268000    18.16064260    14.96995350
H          13.31188770    17.86017610    13.69546890
O          17.17879490     4.19045970     5.16010520
H          18.05364610     4.32926990     4.79733990
H          16.73270230     3.64885090     4.50903460
O          17.88331410     6.35907940     8.92631530
H          17.07737350     6.37067990     8.41002560
H          17.78171160     5.60891720     9.51211930
O          14.85436440     5.04881810     2.77939940
H          15.46441270     5.69363360     2.42122890
H          15.30066390     4.20934580     2.66833450
O           9.09959890    17.29509160     7.25465820
H           8.31942840    17.78474040     6.99425750
H           8.94072440    16.40565490     6.93859820
O          16.84619520    22.57627680     5.92915680
H          16.59912490    21.66307070     6.07490400
H          17.77483750    22.53951070     5.70002320
O          14.58480640     8.37912850    25.42898370
H          14.63552670     9.30725770    25.20043370
H          13.65550140     8.16357330    25.35050580
O          15.59597870     1.09546850    24.28197290
H          15.34867950     1.53165340    25.09733770
H          15.75917910     1.81102660    23.66750340
O          11.65748600    16.28066640     7.45991750
H          11.33208080    15.38990690     7.32993840
H          10.88806150    16.83689310     7.33814290
O          20.30180740    23.78130150    12.32407760
H          20.89359280    24.40615650    12.74309540
H          19.42924880    24.15179630    12.45677380
O          10.66215520    24.30663490    21.96200370
H          10.52386760    24.42128940    21.02181050
H          11.55187320    24.62534710    22.11384960
O           0.98635300     0.89670970     2.87568520
H           0.58592520     0.10332280     3.23125030
O          20.40714070    26.62786670    16.05988310
H          19.51347160    26.89876170    16.27013210
H          20.46894840    25.73079110    16.38800620
O          10.24537090     3.54812000    17.24335290
H          10.05398180     4.41557740    17.59989170
H           9.42450620     3.06458570    17.33613400
O           9.92121320     3.23915770     9.01919360
H           9.71526430     3.17933560     8.08632760
H          10.55154710     3.95696160     9.07976340
O           3.90514850     0.91636040    16.08958240
H           3.92422580     1.19638510    15.17445760
H           3.69308190    -0.01622620    16.05031780
O           4.18779850     1.77521540    13.54145810
H           5.06114100     2.15343900    13.43923000
H           3.65776730     2.21289250    12.87532040
O           2.52511310    12.53538040    24.73893930
H           3.42705820    12.27438640    24.92497630
H           1.98913100    11.89565280    25.20766450
O          19.31024740     0.70239730     6.54814290
H          19.26758000     0.36236550     5.65439270
H          20.09205060     1.25460550     6.55724380
O           6.25347570    13.46243570     1.33869780
H           7.06854630    13.85431580     1.02513440
H           5.56388710    13.96047310     0.89976920
O          18.45230670     1.26847030    24.27834890
H          17.56249240     1.13071470    24.60313610
H          18.40632060     1.04055480    23.34981730
O          10.60057830     8.47733020    21.78497510
H          10.59393410     8.91038990    20.93136600
H          10.12107850     9.07380290    22.35989380
O           2.31938270     6.29670620    23.93206980
H           2.30205250     6.80693530    24.74175830
H           1.47108360     6.46776580    23.52297210
O           5.09576510    23.21239090    16.61870570
H           5.69754310    23.13230710    17.35876080
H           5.65165040    23.11168290    15.84599690
O           2.83148860     1.81132200    20.00731280
H           2.92852880     1.79446430    20.95943070
H           2.02110390     1.32995610    19.84059330
O           4.16180710    11.18489650    15.46097950
H           4.73045060    11.39740090    16.20105930
H           3.90388010    10.27531810    15.61055370
O          12.46432500    13.13791280    20.23661230
H          13.07135680    12.46008010    19.93948170
H          12.73490330    13.32436180    21.13564300
O           9.41102220    23.76082230     8.64728830
H           8.66871550    23.57855990     9.22347640
H           9.71046920    24.63105770     8.91045380
O           3.69779110     2.87551260     1.58994710
H           3.21060280     3.00783440     0.77670000
H           3.19639300     3.35409360     2.25009300
O           4.33065510    10.86361120    12.57345390
H           4.22400190    11.05999660    13.50420000
H           5.23176290    11.11937520    12.37642480
O           3.73635770    23.92324830    13.44357110
H           3.80671410    22.99978640    13.68544010
H           3.23844620    24.32068630    14.15796660
O          12.77918340     9.82849120     8.47389600
H          12.21517370    10.48883440     8.87647820
H          12.39974980     9.68587970     7.60676150
O           4.04950240    16.44206050    10.28152850
H           4.90316870    16.44468500     9.84854130
H           3.53684900    17.09445000     9.80423740
O          11.61548900    19.78136630     0.75741050
H          12.37160300    19.77099420     1.34427960
H          11.77545640    19.06083110     0.14792580
O           2.20143990    16.09425350    22.42479710
H           1.84736920    16.83124920    22.92249490
H           2.36134620    15.41649720    23.08153920
O          18.38476560     3.78247830    19.68607330
H          18.82353970     4.48387670    19.20467000
H          17.59419250     3.60128690    19.17774960
O           6.06535530    18.10994340     7.69143530
H           6.24714420    18.42310520     8.57750130
H           5.43010380    18.73497580     7.34212060
O           6.74729970     3.76870010    19.41957280
H           6.04845290     3.13448950    19.25950430
H           6.90142820     3.72220850    20.36313630
O           3.93562980     8.23197750    15.41131970
H           3.22717190     8.38447380    14.78596880
H           4.17571350     7.31441780    15.28218840
O          19.84995080     4.86311340     7.45669320
H          19.22447400     5.44921880     7.88271090
H          20.14706990     5.34847160     6.68703130
O           4.16558550    22.04456710    10.14666560
H           4.14728450    21.82050320     9.21623990
H           3.67541600    22.86464880    10.20522120
O          19.07209010    12.70394520     5.33651880
H          19.99990080    12.47577570     5.27871660
H          18.64649390    11.90156940     5.63866470
O           6.44941380    24.94274710     8.12403870
H           6.19732380    25.86168290     8.21480660
H           6.40679070    24.77454950     7.18269680
O           4.90353110    11.97814180    21.50940320
H           5.62711050    11.90033050    20.88762470
H           5.32880120    12.11669640    22.35567860
O          13.08073710    12.96432110    22.94980240
H          13.97337150    12.61963460    22.92475130
H          12.60521600    12.35681150    23.51640890
O          19.42990300     7.80129340    18.29829410
H          20.10395430     8.02596760    18.93970490
H          19.53821950     6.86087990    18.15644260
O           3.50234700    13.44735620     5.62786440
H           4.06945320    13.56861020     4.86633920
H           3.53455450    14.28686810     6.08657500
O          10.62455840     4.03490160     3.70684390
H           9.86223510     4.15685700     3.14096210
H          10.32214360     4.29798130     4.57607700
O          13.97446540    17.12427900     3.39098980
H          14.44643690    17.82676700     3.83818860
H          14.30576800    17.14684100     2.49323610
O           1.02168270     3.51096340    13.91015820
H           0.21009160     3.99849460    13.76921840
H           1.38395790     3.87703990    14.71698760
O           8.09652610    21.94216730    14.95673180
H           8.27504440    22.53753470    14.22878840
H           8.72591400    21.22992900    14.84350010
O           5.91003850     9.27039430     2.53351350
H           6.80797200     9.59500690     2.60115100
H           5.98852300     8.44764520     2.05065300
O          13.67889210    13.45791150     7.50863500
H          13.69844250    13.88319110     6.65132190
H          14.37269210    13.89043240     8.00643060
O           7.82580470    23.62169840     3.43464610
H           8.71555810    23.34282680     3.65098050
H           7.88161470    23.91681860     2.52578880
O           9.42163090     5.96834330    22.50033380
H           9.59337040     6.87041570    22.23014450
H          10.23876760     5.68054580    22.90738490
O           3.00293060     8.17535020     3.12604480
H           3.77044580     8.73728370     3.23273710
H           2.75633140     7.93462940     4.01905780
O          15.33379360    17.59544940     9.72839930
H          14.85313420    18.13547900    10.35574910
H          16.01850510    18.17276760     9.39060400
O          13.25279050    22.15036390    21.36264610
H          12.82251550    22.36216740    22.19103810
H          12.55247500    22.19214250    20.71145820
O           7.24773930    17.03784370    23.87704090
H           6.43595030    17.48210530    23.63237570
H           7.92627430    17.48130040    23.36795620
O           9.27438450     1.19028260     4.09653900
H           9.77713390     0.37790990     4.15591190
H           9.36817740     1.46385100     3.18407200
O          15.74455830     3.28898720    18.96763800
H          15.54866030     4.22050090    19.06832310
H          15.00515270     2.94126560    18.46903990
O           6.47475290    12.29386040    23.75904080
H           7.26621680    12.63932130    24.17192460
H           6.29884580    11.47640800    24.22493550
O          19.34279060    18.48380280    11.74581530
H          18.58240700    18.91751670    12.13303950
H          19.45239450    17.68574710    12.26285170
O           4.69418240     9.76279350     9.58746530
H           4.32865810     9.59955410     8.71799660
H           4.42336750    10.65660950     9.79718400
O           6.57994510    21.71948810    19.02345280
H           6.32128430    21.50879670    19.92063520
H           6.55002210    20.88116460    18.56242370
O           4.81487560    26.32165150    23.83665470
H           5.18792820    25.50221820    23.51170350
H           4.01945020    26.05624960    24.29827500
O           2.29199120     9.25833800    12.16473770
H           3.05866720     9.82813260    12.10329060
H           1.84885120     9.36142060    11.32257840
O          10.98688600    14.47770980     0.26550240
H          11.59409050    14.82212160    -0.38941440
H          11.25330070    14.89761070     1.08338870
O          12.36284350    21.69456670    10.88471790
H          13.18377210    21.98420140    11.28273770
H          12.43835830    21.95175360     9.96581460
O          18.84034730     1.84448100    21.40262600
H          18.54067800     2.34807830    20.64577670
H          19.18343930     2.50232030    22.00741390
O          13.25893400    24.58520890    19.12786480
H          13.17606830    24.77339550    20.06271740
H          13.89810280    25.22332000    18.81083110
O           5.51411440    19.41570660    10.22630500
H           5.16246320    20.27332310     9.98741150
H           6.26037880    19.61213300    10.79264260
O          14.43814560     6.04697940    10.99806980
H          14.60680770     6.90036390    10.59867100
H          15.18227770     5.90511080    11.58319470
O          18.97113610    10.08217430    25.42235370
H          18.45142750    10.87348840    25.56361770
H          18.60548210     9.69422720    24.62735180
O           9.30148510    25.59500690    24.84839440
H           9.17949390    25.17567830    23.99662400
H           8.95876690    24.96129230    25.47861670
O          18.28418160    23.02175140    15.24341770
H          19.15835190    22.66539000    15.08509640
H          17.79753880    22.82718660    14.44244770
O          17.28029630    24.61369320     9.50383950
H          16.88315390    24.55068400     8.63519570
H          16.54964830    24.49394230    10.11050610
O           6.02701950     6.70088480     1.40096890
H           5.24402280     6.19194700     1.61103860
H           6.00497480     6.79207800     0.44837800
O          13.69273850    25.42831420    10.98657040
H          13.42378330    26.34683610    10.97193340
H          14.53230760    25.43187900    11.44629100
O          11.39620970     5.59129050    19.65096280
H          11.82970620     6.43446640    19.78274540
H          10.46248820     5.80155710    19.63740540
O          19.10247040    22.38697430    21.98044010
H          19.56914900    22.36459160    22.81587030
H          19.56242560    21.75140950    21.43205450
O          12.16919900     4.80215880    10.07160760
H          12.99722480     5.24972630    10.24564170
H          11.53419970     5.24617200    10.63362120
O           9.02411650     6.33362480     6.97201680
H           9.11798190     7.03641800     7.61505840
H           8.23955820     5.85973790     7.24793480
O          11.87359910    11.43149850    24.97872350
H          12.80680940    11.47820280    25.18649100
H          11.74583630    10.54197690    24.64908790
O          19.06857490     2.63940620     3.22051190
H          19.21968270     2.89933780     2.31175760
H          19.51525690     1.79716370     3.30615760
O          15.14960960    15.25809570     0.41436470
H          15.48608300    16.00594520     0.90806620
H          15.35240650    14.49919990     0.96133990
O          15.33677390    25.10536380    23.40215680
H          15.70983700    24.51611330    24.05777930
H          15.46291160    25.98098750    23.76767540
O           5.96581840    19.01873400    18.28792760
H           6.28484490    18.11704250    18.25045390
H           5.20185760    19.02665900    17.71127130
O          12.86111830     2.26291890    10.40644260
H          12.84332470     1.75526260     9.59514810
H          12.73056030     3.16851520    10.12522890
O          13.11916640    24.02204900     2.17373990
H          13.79303930    23.39902500     1.90176900
H          12.96513180    24.56186870     1.39843400
O          17.25680540    23.28654290    17.51686670
H          16.93246080    22.39861300    17.66725160
H          17.83346750    23.20543100    16.75718690
O          10.49577810    13.11338520    13.60473630
H          10.45008750    13.92282680    14.11360550
H           9.93264580    12.50086780    14.07795520
O          10.62186240    25.44776150     3.70008130
H          10.48061470    24.51184080     3.55748610
H          11.31419090    25.68238450     3.08212900
O          16.87700460    21.21474650     1.46556030
H          17.32808690    20.50306510     1.91972480
H          16.33213040    21.62147710     2.13929130
O           4.16076760    12.35559560     9.37768170
H           4.61951730    13.19111820     9.29002760
H           3.25092030    12.59871860     9.54885290
O           9.75842860    13.05558680    20.40985490
H           9.55901150    12.13421440    20.57579800
H          10.71165660    13.11030770    20.47763630
O           5.40662100     7.34924890    10.40584180
H           5.26308540     8.29530050    10.38104060
H           4.77041720     7.02712920    11.04436870
O          17.42141720    14.09854600    12.40236090
H          17.78987120    13.52505210    13.07435610
H          18.11737440    14.18156150    11.75045200
O           2.67404650    16.92808150    17.97732540
H           2.02591990    16.59773830    17.35520360
H           2.92062850    16.16209790    18.49568560
O           2.96917250    18.80543330    20.28919030
H           3.30357270    18.28839110    19.55633540
H           2.64755150    19.61193470    19.88626670
O          18.29762840     7.38417910    15.48878670
H          18.86694910     7.58741760    16.23094750
H          17.88166810     6.55534360    15.72593880
O           1.01936340    17.38662720     4.11504320
H           1.52319050    17.40485950     4.92871240
H           0.15000730    17.08476830     4.37835360
O          13.50840090     2.82469130     5.87477060
H          14.19139290     3.29555270     6.35230970
H          12.73605730     3.38558960     5.94626000
O          10.70671370    15.28728580    15.13878820
H          10.29876140    14.93120480    15.92810060
H          11.16407200    16.07271770    15.43904690
O           0.85057650    13.76378630     2.35877850
H           0.53430660    13.66729160     1.46050580
H           0.92428400    12.86670300     2.68441720
O          18.95155530     3.65343710     0.45997660
H          18.04424860     3.84883020     0.22578230
H          19.37844470     3.46158270    -0.37500100
O          11.90270040     5.22717430     6.80551480
H          12.34121420     5.41930680     7.63438270
H          10.98968220     5.47267440     6.95504620
O          15.77880380    24.96803280     6.61510230
H          15.25852390    25.11327360     5.82488390
H          16.35364530    24.23584750     6.39217520
O          17.12105750    22.18206600    12.72918510
H          16.16572760    22.24026300    12.71539120
H          17.30271530    21.30429460    13.06497000
O           4.73584270    20.77327350     0.34928840
H           4.29023840    21.60858350     0.49044310
H           5.57075600    20.86668590     0.80801240
O          20.07795140    18.54007340    17.42037390
H          19.26535610    18.67621990    16.93315510
H          20.65162850    19.25021170    17.13257220
O           4.11877350    13.53199390     3.03202490
H           5.02597140    13.59443190     2.73315290
H           3.72867680    14.37206940     2.79050780
O           7.59423260    22.72527690     6.73755120
H           7.49473810    23.48924060     6.16949130
H           7.97006990    23.07488440     7.54548220
O           3.33444690     2.03275200    22.84299470
H           3.90573020     1.27091690    22.94032100
H           3.72552200     2.69912580    23.40800480
O          10.68609330    22.53439520     4.16414500
H          11.35552790    22.01998710     4.61522440
H          10.34869670    21.94754980     3.48738150
O           4.49903200    21.93381310     7.37960960
H           3.91284470    22.33926390     6.74068210
H           5.34285640    22.36232190     7.23618360
O           0.84509190    20.52156070    25.42101290
H           0.59032540    20.28077320    26.31171420
H           0.35316470    19.92136000    24.86065670
O          14.13895420     6.47513010     5.06009530
H          14.64545730     6.00451760     4.39812040
H          13.48201080     5.84348820     5.35281900
O          19.77651790    25.99537660     9.13659860
H          19.54859730    26.33872990     8.27265830
H          19.10054400    25.34327510     9.32113650
O          18.92750550    15.90416240     3.02229740
H          19.32386020    16.26407430     2.22882410
H          19.48968890    15.16591550     3.25719120
O          16.68906970     7.55264190     2.05094670
H          17.52136230     7.30298330     1.64946020
H          16.23348240     8.04741290     1.36986480
O          11.44990630    22.05568700     8.29897120
H          11.23024940    21.28228570     7.77951670
H          10.62137510    22.52631000     8.38997460
O           8.23301510    11.85028080     4.82656620
H           8.27648160    11.11962990     4.20972590
H           8.57259850    12.59862230     4.33575010
O          16.24556540    23.02039720    24.84080120
H          16.37417030    23.31441500    25.74260330
H          15.69532490    22.24108310    24.91913030
O          18.13285640    14.50051980     7.29398200
H          18.42058180    13.76426120     6.75419380
H          18.35637090    15.27628230     6.77972270
O          10.09422400     1.72637200    23.43485450
H           9.35311510     1.13910700    23.28616520
H          10.51912020     1.38169310    24.22027970
O           3.69176390    19.48271560     6.79084830
H           3.99404050    20.37629510     6.95325800
H           3.82082080    19.35326580     5.85126350
O          16.13971330    17.17648700    20.15569500
H          16.24630170    18.12530900    20.08781430
H          17.03129010    16.84154130    20.25126840
O           5.35408310     8.67323590    18.15075680
H           5.11638160     8.02703570    17.48580930
H           4.51794150     8.94949910    18.52596090
O           2.78398610    22.21258740    22.01463510
H           2.93542770    23.14861870    22.14555930
H           3.46413900    21.78484730    22.53488920
O          18.55859180    11.90182780    22.24962620
H          19.35322000    12.16579060    22.71343990
H          18.73864750    12.10435770    21.33158870
O          16.78419300    19.40929410    12.65654180
H          15.96000100    19.21759220    12.20911410
H          16.52745440    19.60670090    13.55728910
O           9.17567730    19.17205240     3.92807150
H           8.55158330    19.27321430     4.64675380
H           9.73189740    18.44024090     4.19509460
O           4.58351230     3.84353400     5.02761320
H           3.71442700     3.44709490     5.08894110
H           4.43032740     4.77862120     5.16317890
O          17.14719580     5.14138270    11.57256320
H          16.73592380     4.43538380    11.07391360
H          16.85088160     5.00330500    12.47220990
O          19.73186870    18.39367680    23.82868770
H          18.96930500    18.96173670    23.71898080
H          20.18488690    18.43558120    22.98651700
O          16.16163440    25.52470590    12.16113660
H          16.58423040    25.31826970    12.99482150
H          16.73990820    26.16879270    11.75250050
O          17.02500340    24.82685280     1.11351620
H          17.81246380    24.28322220     1.13816200
H          17.14886860    25.46005060     1.82058850
O           2.56137370    12.96761130    20.50670810
H           2.64406110    12.36720750    19.76582340
H           3.33374500    12.79245950    21.04429440
O           2.55219750     0.60344220     5.65462640
H           2.75009440    -0.18047630     6.16701360
H           2.22621440     1.23359270     6.29718160
O          16.64027020     4.30554250    24.73218920
H          16.79126170     5.20996280    24.45749280
H          15.98537060     3.97468380    24.11747740
O           2.34398170     7.18422700    18.36629300
H           2.27643490     7.26407720    19.31776240
H           2.99598410     6.49694350    18.22930530
O           2.97801880    24.81020160    15.99371530
H           3.73419670    24.26785850    16.21796800
H           2.28547760    24.51091770    16.58282660
O           9.95911410     0.38893060     9.76135440
H          10.35877420     1.23623470     9.56493760
H           9.02132420     0.57309790     9.81485940
O          17.00790600     6.18845750    22.28059580
H          16.06787300     6.36892510    22.28262330
H          17.35589980     6.73862550    21.57884980
O           5.17632580    18.34322550    22.58747290
H           4.47769260    18.19304660    21.95061110
H           4.81634620    18.99540330    23.18856430
O           8.51558590     6.03048850    19.78217120
H           7.92511700     5.43800740    19.31682590
H           8.60300830     5.64545200    20.65414240
O           9.31187340    17.97432330    22.14164920
H           8.66147800    18.44526290    21.62065510
H           9.41119190    17.13258930    21.69684220
O           5.53712130    21.99730490     3.84011600
H           6.13088180    22.74738310     3.80751850
H           5.79549980    21.45474620     3.09506370
O          19.70299910    11.97498040     8.59168910
H          18.95208360    12.51267240     8.84317300
H          19.34763340    11.34603210     7.96369890
O          14.22602460     2.56753920    14.35741620
H          14.29219910     2.59256600    15.31199840
H          14.99950500     2.07864760    14.07644460
O          18.07104110     8.56890580     4.63554140
H          17.60894010     8.32409380     3.83381610
H          18.95281410     8.21435070     4.52152780
O           1.93433480    23.63523860     2.97150280
H           1.81630230    24.26310350     3.68430570
H           1.06825450    23.24653240     2.84884500
O           1.26316550     9.83822350     9.54031180
H           1.65641310    10.43056200     8.89943500
H           0.44113170     9.55999570     9.13647650
O          14.56873420    18.99795720    17.19291310
H          14.84782600    19.20034980    18.08587270
H          14.53909400    18.04170990    17.16217230
O          11.29121880    23.86679460    14.81775090
H          11.31200700    22.91515730    14.71681400
H          10.57803630    24.15267370    14.24689670
O           6.51215170     1.24136810     4.88477560
H           7.40812680     1.18221400     4.55317160
H           6.15406660     2.02553370     4.46873330
O          15.63523390    16.15735050    12.72034840
H          15.64901350    16.75961880    11.97649570
H          16.23179440    15.45232490    12.46877670
O          15.58983900     3.56760310    22.40249250
H          14.96127510     3.39658980    21.70114140
H          16.10966680     4.30538320    22.08360100
O          17.11176680    14.53365800     4.45557070
H          17.73511890    14.85150050     3.80239440
H          17.56324580    13.80607220     4.88337760
O          13.69520470    17.68744090     6.63963750
H          14.22510720    17.95759200     7.38960700
H          12.95553300    17.21822930     7.02558660
O           3.46482750    18.36546900     0.52390900
H           2.68888000    18.40486910     1.08300240
H           3.73382090    19.27851870     0.42283430
O           1.98041820    12.84947780    15.41916280
H           1.68389230    12.72613530    14.51744840
H           2.58148860    12.12109660    15.57538410
O          20.20381930    22.74225230    24.66823200
H          20.86703110    22.08028600    24.86363600
H          19.88254360    23.01993180    25.52608300
O          14.75253680    11.22925000    25.30519490
H          14.74373530    11.16215130    26.25999830
H          15.65173720    11.47767930    25.09082790
O           1.38341240     4.37780430    22.02938840
H           0.53279020     4.34838200    22.46734620
H           1.90817170     3.71661420    22.48070530
O           8.38010790     7.94117740     4.79594090
H           7.54449130     8.13717750     5.21968600
H           8.89075090     7.49210740     5.46959640
O          12.94698050     0.30425430    15.79023550
H          13.12470820     0.36860200    14.85188290
H          12.46551900    -0.51736460    15.88702580
O          11.91570570     8.00109580    24.43334580
H          11.80477520     7.69693470    23.53256230
H          11.25690650     7.51794910    24.93212890
O          19.33104520     6.79650310    11.97138020
H          18.82920070     6.07942300    11.58385090
H          18.93321610     7.58919330    11.61137390
O           6.87906500     8.02649400    23.81609340
H           5.96564390     8.28411390    23.94069860
H           6.84408900     7.32937430    23.16108700
O          13.38773350    13.97483060    17.69510080
H          13.78520010    14.84525010    17.72007940
H          12.83504010    13.94141480    18.47589870
O          -0.06313320     7.13677020     4.19076780
H           0.26974490     6.44568160     3.61821220
H           0.62217050     7.25345040     4.84877630
O           9.59688850     2.97060820     6.31612920
H           8.75004480     3.40511750     6.41756390
H           9.45050430     2.31740330     5.63193180
O          11.34685800    17.53269960     4.78413250
H          12.13801670    17.27886010     5.25938460
H          11.48893550    17.21153830     3.89368200
O           0.73298170    21.22195430    20.59091190
H           1.38553140    21.23289870    21.29112050
H           0.97359850    21.95760920    20.02775380
