572
Conf 1. Box X: 19.543 0.000 0.000 Y: 0.000 17.629 0.000 Z: 0.000 0.000 16.878
H          10.83713440     6.32467940     6.36930660
N          10.48445220     7.23568920     6.07941200
H           9.73305890     7.00897600     5.42951250
C           9.63607410     7.66414640     7.22443530
H           9.04329680     6.81410030     7.58391620
C          10.59784600     7.96943330     8.41089630
H          10.50656600     7.03773980     8.98122020
H          11.63997170     8.07731910     8.08841800
C          10.22419170     9.03654100     9.37522130
N           9.64570240     8.86659240    10.70000360
H           9.34932420     7.99304440    11.11008260
C           9.41868400    10.04995250    11.28492360
H           8.86184790    10.27876570    12.18398380
N           9.81319810    10.98402690    10.32543370
H           9.76568320    11.99209500    10.35059450
C          10.22573470    10.38460250     9.16959290
H          10.61172200    10.91220380     8.30765250
C           8.55253220     8.69929790     6.91659310
O           7.44258740     8.72995280     7.43252420
O           8.93263820     9.62871740     5.99336960
H           9.87713240     9.41387180     5.90660670
O          15.79644680     4.95974250    11.39494610
H          16.64282420     4.51662250    11.45428470
H          15.70679660     5.18177990    10.46818070
O          15.13146110     5.37082290     8.32618620
H          15.89890670     5.69237800     7.85304690
H          15.05581860     4.45322230     8.06442450
O          16.38432310     4.53724580     5.67474370
H          16.28092960     3.76870350     6.23588850
H          16.70666310     4.18611050     4.84466410
O           4.24390410     6.33201220     2.04169110
H           4.70037270     6.73019500     1.30053060
H           4.74558070     5.53992840     2.23445010
O          17.02910800     7.15490440     5.34429840
H          16.72790720     7.23901460     4.43962430
H          16.92712400     6.22459320     5.54517600
O           0.10320100    17.85898590     5.79185200
H          -0.30618660    17.09035300     6.18914080
H           1.01494980    17.82100110     6.08081870
O           8.04393100    15.94065760     5.66580340
H           8.14623070    15.10297010     5.21408890
H           7.51038600    16.46920390     5.07233810
O          16.99355510    15.62637900    14.26196960
H          17.69485280    15.68776420    14.91054150
H          17.44868090    15.56643870    13.42203040
O          11.95054530    15.08591180    16.10599330
H          12.35850140    14.92587850    15.25499730
H          12.51038070    14.62462710    16.73051830
O          18.65424540    10.83807180     2.44491290
H          18.61111830    10.01135730     1.96437630
H          19.11178210    10.61960120     3.25680020
O           5.89771080    11.13530350     6.44410320
H           6.40637020    11.38077740     5.67128990
H           6.52121540    10.67313100     7.00434350
O           8.06451420     3.72419360     6.92138910
H           7.89293770     2.85555840     7.28507280
H           7.47329620     4.30527780     7.39996480
O           5.29564290    15.40432070    16.39884570
H           5.51091580    14.75777440    17.07105640
H           6.00804900    15.33531950    15.76327800
O           5.09287640    13.13269810     8.21863650
H           5.34882350    12.24139690     7.98135230
H           5.07103920    13.60518930     7.38646650
O           8.02383140    13.25396160     4.74135350
H           8.26817610    13.64298250     3.90159750
H           7.81501720    12.34360600     4.53187610
O           2.04457280    13.72840020     4.73189310
H           1.56603810    13.19681740     5.36801910
H           1.82354160    14.63140870     4.95982170
O          11.58300210    14.36775970     8.35494710
H          10.72895620    14.21451190     8.75911620
H          11.42138100    14.28568740     7.41506810
O          10.35619540     4.34540270     3.49456830
H          10.60160060     4.32050900     4.41944070
H          11.04847720     3.85633470     3.04983190
O           5.72424130     4.34130570    10.46606250
H           5.77496530     3.54585650     9.93604370
H           5.35570720     4.05025670    11.30015090
O           1.37726400     6.09753040    12.37834070
H           0.99825200     6.95604040    12.18981170
H           0.62234690     5.51404860    12.45502660
O          12.58385370     5.62161830    15.29330440
H          12.69623660     6.48566440    14.89703940
H          12.73187830     5.76567460    16.22795300
O           2.88591380    15.70241740     9.07973290
H           2.26587770    16.14621160     8.50108430
H           2.83643340    14.78167630     8.82279010
O           3.98440740    16.29957580     2.35331770
H           3.57970710    16.77454570     1.62747090
H           4.81475260    15.98206040     1.99843510
O           0.97150810     5.55159570     7.23796700
H           0.18722540     5.35191730     7.74910400
H           1.63704200     5.76220800     7.89290090
O           1.02038290     3.46599770    16.40510560
H           1.78849220     3.13493250    16.87054630
H           0.40954980     3.71596150    17.09838100
O           9.20846370    13.96304890     9.93538380
H           8.64943790    14.47348690     9.34957220
H           9.07227330    14.35481070    10.79805850
O           7.63971900    15.28621100     8.41232490
H           6.89303590    15.80402090     8.71327210
H           7.51770210    15.21785830     7.46539830
O          15.00865940    10.36604980    13.87783620
H          14.32731340    10.08195970    13.26849840
H          14.66764640    10.13669680    14.74232480
O           3.94125560     6.79331870     6.36951830
H           3.83545300     7.64149760     5.93866970
H           3.16116810     6.70379070     6.91694880
O          13.83260730     5.00647640     4.58030840
H          13.62277790     5.93750290     4.65375660
H          14.66859250     4.91261480     5.03698110
O           3.87111850    10.10813430    10.90661240
H           3.07918170    10.02585510    10.37529470
H           3.85706230    11.01283070    11.21895690
O          10.25498870     1.76570220    14.61293220
H           9.50348570     1.26270390    14.29913810
H          10.81151870     1.11916160    15.04708860
O          14.72920510    15.05140020    15.58856960
H          15.33430100    15.27827740    14.88244060
H          15.02761460    15.57014080    16.33562470
O          18.45622830     8.95397950     8.67925450
H          18.12211800     9.57077120     8.02797220
H          19.13932800     8.46634010     8.21902080
O          16.35565950    15.05569460     3.71321680
H          15.61242580    14.46599010     3.84004590
H          16.03630830    15.90965940     4.00474830
O          12.99440860     5.97563740     9.88141250
H          12.55257890     5.19527050    10.21614360
H          13.84455490     5.65769960     9.57744030
O          17.76027870     5.52525520     0.94431850
H          16.97060970     5.74877260     0.45167940
H          18.31040190     6.30610940     0.88216370
O          18.64169310    14.52594380    16.58424570
H          19.25058170    14.03965850    17.14013480
H          18.90380100    15.44100480    16.68521120
O          10.26389600    12.15950200     1.52511180
H           9.60637860    11.56683830     1.16089950
H          10.90962790    11.58079810     1.93052880
O           5.99434470     0.90976810     6.57039690
H           6.82154850     0.45783330     6.40389820
H           5.59788130     1.01021480     5.70497370
O          18.97722050     8.15680030    12.68217560
H          18.53872490     8.95114800    12.37727170
H          18.26414490     7.54586120    12.86794850
O           3.33638100    16.99596980    15.09024430
H           2.98015590    17.46755790    15.84319880
H           3.73695950    16.21212390    15.46621510
O           6.86568260     2.83605480    15.16814040
H           6.87856290     2.55675890    14.25268460
H           6.66794970     2.03850840    15.65911480
O          13.63236330    10.86912820    11.34284690
H          13.20870590    10.04414560    11.10588840
H          13.68000220    11.35845950    10.52155590
O          16.45382500    13.89759540     7.59569410
H          16.03513340    13.17720990     7.12455420
H          15.95607190    14.67357540     7.33814950
O          19.14065740    17.07284550    16.05394740
H          19.77878570    17.42333600    16.67538070
O          12.27578070    10.70734880     3.01111510
H          13.02659510    10.12708190     2.88541940
H          12.65250590    11.51346590     3.36393930
O          12.21481700    17.17878910    13.44123650
H          12.86724380    16.73336600    12.90071110
H          12.45459840    18.10417370    13.39223190
O          15.82256790     5.99786660    15.80995660
H          15.57009700     5.99402810    14.88666060
H          15.03334430     6.27900410    16.27290340
O          15.30726430     8.58475970     7.03911350
H          15.96202750     8.15559290     6.48835710
H          15.56451320     8.36297700     7.93402620
O           8.72037410     3.45460030    12.28612900
H           8.73300270     4.08412840    11.56518080
H           8.73147200     3.99494650    13.07614990
O          14.16070270    12.64098360     0.40152820
H          14.47821710    13.34308530    -0.16633550
H          14.25564190    12.98871140     1.28826560
O           3.93411250     9.25561710    14.51270290
H           3.71597190    10.07906440    14.94925880
H           4.42698100     9.51965330    13.73578830
O           2.97697160     5.82393170     9.08392050
H           3.11265180     4.88717460     9.22642800
H           3.56102370     6.24882510     9.71207620
O          16.74610900     3.17444040    15.75836560
H          16.01314930     2.94346900    15.18770600
H          16.46843720     3.98259540    16.18966100
O           5.63108250    16.69523430     9.94178960
H           4.74709130    16.45751950     9.66199490
H           5.81720730    16.10656360    10.67326550
O           2.52449040     6.88436130    14.67816070
H           2.30234910     6.66975590    13.77216430
H           3.02007100     7.70094010    14.61627290
O           3.67852500     2.80105300     0.73116940
H           4.35588840     2.25209520     0.33612920
H           4.02314000     3.02108860     1.59665020
O           6.31859780     8.18313310     9.96669770
H           5.56566620     8.76124670    10.08963580
H           6.72204020     8.48507020     9.15287970
O          16.36188700    14.69778250     0.99183120
H          16.71043970    14.61970710     1.87988910
H          17.13123700    14.63305470     0.42601950
O           5.60819630     7.26260470    16.54829410
H           5.68507580     6.34514050    16.28641510
H           5.44344140     7.73209290    15.73057270
O           4.96153450     4.59139820    15.74325280
H           5.68711850     3.97498420    15.64428520
H           4.33608630     4.13654520    16.30730440
O          19.49931340    14.04055020    11.37041280
H          19.09826660    14.02094650    12.23932550
H          19.52233120    13.12366580    11.09650330
O          16.46076770    17.72266770     1.20157990
H          16.63449670    18.16669080     0.37158440
H          16.55457310    16.79177090     0.99942960
O           9.77021310    15.95270060    12.19078920
H           9.04922960    16.38053320    12.65271280
H          10.55260180    16.20701980    12.68009570
O          14.24427320     4.16117760    13.67700390
H          13.56978990     4.74381640    14.02605250
H          14.58940320     4.62445260    12.91379170
O           9.05927180     1.06105420    10.80302620
H           8.76126670     0.33297350    11.34830000
H           8.99393650     1.82840350    11.37147810
O           9.39673520     1.07574750     8.12102890
H           9.99589060     0.33036230     8.16160110
H           9.19305520     1.26940440     9.03603840
O           0.76693250     9.29554270    15.47293850
H           1.41056820     8.64088540    15.74384310
H           0.56283860     9.06956390    14.56546400
O           6.82401280    11.34332850    10.56322960
H           6.05895230    11.42517760    11.13262840
H           6.88805580    12.19174480    10.12468530
O           5.63363460     0.83482070    16.57000920
H           5.04645730     0.17810920    16.19559860
H           6.11398510     0.36554240    17.25211910
O          14.93386940    14.48256020    10.25920870
H          15.64689350    14.84912400     9.73627470
H          14.66475580    13.69830040     9.78093620
O          18.59678460     1.21266840    11.02585410
H          18.49675750     1.57812310    10.14683820
H          19.08041950     0.39743900    10.89269830
O          16.76655010    17.46816440     6.82353830
H          16.84323120    17.96393590     6.00833080
H          15.92667390    17.01490210     6.75011400
O           1.46756170    12.70377160     7.80323460
H           2.27285290    12.76081940     7.28895430
H           1.62350080    11.98278140     8.41322420
O          11.33202270     3.21278380    10.88385200
H          11.83649640     2.85327910    11.61357310
H          10.54584410     2.66814140    10.84485630
O          14.45205210    11.11642070     6.60788490
H          14.61732010    10.22653290     6.29641010
H          14.02388670    11.55241010     5.87112190
O          10.62034800     4.55368610     6.21715260
H           9.72638130     4.52915670     6.55840440
H          11.01985650     3.74347690     6.53367140
O           4.75432400    11.13858510     1.62811320
H           4.16917040    11.87643050     1.79961480
H           4.29598430    10.38023280     1.99013440
O           6.86937710     8.57983110     2.39717220
H           7.31108470     7.83710380     2.80885310
H           6.71328540     8.29635720     1.49633440
O           6.57312970    17.29397010     3.66116760
H           7.03701210    17.48575400     2.84614370
H           5.85769840    17.92944910     3.68479680
O          11.98090930    10.65952400    14.04148290
H          11.50553320    11.23421480    13.44150070
H          11.79540440    11.01469800    14.91077610
O          12.09494780     6.92098710     2.86210160
H          12.38235860     7.29331300     3.69576880
H          11.42736720     6.27905370     3.10394530
O           6.41312220    14.57009890    11.66670510
H           5.82180980    13.97418120    12.12655740
H           7.27563670    14.16352460    11.75036330
O           3.31674390    13.37016010     2.53322820
H           3.51023770    14.30107980     2.42286900
H           2.97323320    13.30088330     3.42397690
O          14.92837520     3.45092200     1.21802410
H          15.13883780     4.10793880     1.88155000
H          15.69878290     2.88354490     1.18995340
O           3.42209340     3.86542800     5.17741820
H           2.96799090     4.08034710     5.99217700
H           4.01972960     4.59953690     5.03547760
O          16.36886980    12.74787900    13.03054240
H          16.21229170    12.01588920    13.62712100
H          15.53938480    13.22529220    13.01432130
O          12.70445250     2.09758660    13.01133350
H          11.92063330     2.09964370    13.56074710
H          13.15423490     2.91302200    13.23267750
O          12.66315650    16.21696280     3.59297850
H          12.99366860    15.33031750     3.44856310
H          13.42599870    16.78076930     3.46481750
O           2.00148390     6.49007420     0.43390950
H           2.66959860     6.34844970     1.10457860
H           2.42965130     6.24471860    -0.38627670
O          15.37091540     1.13316820    13.60419750
H          15.38479230     0.22165680    13.89606290
H          14.62799450     1.18071270    13.00250050
O           7.88351060    17.45746420     0.99271530
H           8.18571850    17.57495500     0.09210520
H           8.67641830    17.24695210     1.48588140
O           8.77704140     9.75352290    14.69730570
H           9.08370210     8.86122040    14.53609850
H           9.16813660     9.99307440    15.53747940
O           6.20252990     1.55878260    12.77583220
H           5.32552340     1.73032950    13.11885070
H           6.31661800     2.20290570    12.07703210
O           2.96461390     0.38226800     7.09345480
H           3.76806740     0.72391700     7.48584600
H           3.25966260    -0.08499430     6.31189060
O          14.91229920     2.73992060     7.59188800
H          13.98158930     2.69581510     7.81112810
H          15.33358190     2.14856720     8.21562860
O          11.77329920    11.86184220    16.29096790
H          12.66347030    11.99042510    16.61852650
H          11.21235470    12.24644850    16.96450420
O           3.00412750    14.95555500    12.66151430
H           2.35814670    15.63734440    12.47684670
H           3.60372160    15.35763550    13.29004380
O          13.59162330    12.40159130     8.88982960
H          13.90015320    12.07029820     8.04645250
H          13.00177760    13.12065600     8.66342450
O           3.29460240     3.12273600     9.19818880
H           4.12561800     2.66343590     9.07700060
H           2.95637230     2.79052070    10.02973270
O           0.46769820     0.67148210     2.43730470
H           0.79051310     0.96880440     3.28796430
H          -0.03213880    -0.12070660     2.63436340
O           3.79230790     9.49312400     5.56104180
H           3.90336420     9.43495940     4.61208720
H           4.57806970     9.94623470     5.86681990
O          14.82206440     0.17589850     3.49725630
H          15.15699390     0.90855790     4.01423260
H          15.21485140     0.29371830     2.63234640
O           0.27208050    13.21447660     2.09114220
H          -0.24035730    12.41018100     2.17328980
H           0.73553660    13.28943920     2.92530110
O          11.60684590    17.81738660    16.35533330
H          11.62751200    16.86327740    16.28132630
H          12.51835540    18.06543920    16.50977520
O           1.91277500    11.75972370    16.16284940
H           1.70100880    10.82897380    16.23420720
H           1.72195720    12.11598010    17.03055000
O          18.78909110    13.81019400     5.18671890
H          18.86195560    12.86456970     5.05742360
H          17.98208050    14.05254550     4.73259160
O          18.33575060     4.63534260     9.42198470
H          18.73898510     4.51998520    10.28240680
H          17.83083150     3.83381750     9.28470230
O           5.95717430    14.12702180     1.82731380
H           6.91433530    14.12693120     1.81858240
H           5.71871950    13.20866580     1.95377670
O          17.88038640    10.29816910    15.97702790
H          17.99168780    10.92590710    15.26303290
H          18.67910580     9.77095320    15.95910840
O          12.35700420     2.80628400     8.28282070
H          12.23171330     3.25514030     9.11892030
H          11.72235010     2.08989430     8.29810520
O           5.64273450     3.92221550     2.41511960
H           6.07159420     3.59287260     1.62528170
H           6.19857980     3.61976430     3.13330600
O          17.60324860    16.46071430     9.15726660
H          17.15963360    17.02092360     8.52039620
H          18.12688830    15.86144830     8.62537190
O           0.72964580     6.52531530     4.58472010
H           1.05762960     6.11054900     5.38260940
H          -0.12953080     6.86915590     4.82930180
O          15.32301040     1.06804660     9.74004080
H          16.04250530     0.80258180    10.31282900
H          14.53367420     0.90921880    10.25768380
O           0.77293020     3.29717060     4.72085090
H           1.70242880     3.48335840     4.58819440
H           0.72099410     2.96316620     5.61638160
O          15.85818290     7.14280030    13.02703290
H          15.82508370     6.48468300    12.33275890
H          15.84039400     7.98042010    12.56409840
O          16.77735520    10.13057140    11.38162900
H          15.97731880    10.46384810    11.78795150
H          17.23793790    10.91417790    11.08153250
O          14.45176120    16.58171460    12.00565150
H          14.24033740    15.99010560    11.28348060
H          15.33531380    16.32789230    12.27237510
O          18.82292370     5.02324390    14.44632240
H          19.43759540     4.83936880    15.15667340
H          17.95871160     4.92570780    14.84614370
O           8.73108200     6.00660040     2.05094310
H           8.37776760     5.33028790     1.47301380
H           9.48828980     5.59452340     2.46694830
O          15.42384430     9.81599040     0.57706990
H          15.06481360    10.70276930     0.60789790
H          16.20164870     9.89158440     0.02431450
O          12.57028580     7.88132760    13.66948320
H          12.81072710     7.91120050    12.74345590
H          12.25508210     8.76402760    13.86369230
O           8.08392520     6.34069060    10.86902330
H           7.48049780     7.05818650    10.67587760
H           7.55001540     5.55035690    10.78812120
O           8.00164510    17.36937710    13.66172980
H           7.36525960    16.88660240    14.18915270
H           7.47779370    18.01163860    13.18286510
O          13.36852070    13.52404400    12.72651390
H          13.62247090    14.01060770    11.94229600
H          13.48466010    12.60482500    12.48614030
O          18.12157060     1.89524270     8.48131850
H          17.78158570     1.17249580     7.95379690
H          18.97714610     2.08937840     8.09852310
O          16.11261940     7.94226170     9.85906510
H          17.03280260     7.78586480     9.64685440
H          16.13148310     8.65963270    10.49251170
O           0.63561250    11.41346650    12.54409220
H           0.00212390    11.70857520    13.19818310
H           1.47221370    11.40189650    13.00906090
O           1.44994640     2.80612560    13.56596660
H           1.40938190     3.57025430    14.14102750
H           0.75567820     2.22937770    13.88469220
O          18.46709440     3.82924940    12.09172060
H          18.76116370     2.91888900    12.06012340
H          18.81901740     4.16616630    12.91565610
O           9.99692730     7.34393980    13.42181590
H          10.94606020     7.32995510    13.29859450
H           9.78584770     6.47195630    13.75546460
O           7.27214620    14.91301820    14.76866150
H           8.17802810    14.60877990    14.82385250
H           6.77113910    14.13210680    14.53328610
O          18.73639300    15.79799180     2.74203590
H          17.87973790    15.61417960     3.12750530
H          19.12342830    14.93482690     2.59581040
O          17.30755620    16.36834530    11.72198200
H          17.52495380    16.21719170    10.80213260
H          17.54523470    17.28248790    11.87717630
O           6.19868660     5.57036880     7.84870670
H           5.92483710     5.58642580     8.76575660
H           5.42210770     5.84649660     7.36197140
O           4.34811590     3.72177220    12.98967840
H           4.24366760     4.09215450    13.86611370
H           3.45611190     3.65958310    12.64807320
O           7.49636170     3.01441000     4.24830680
H           7.68282130     3.38184360     5.11228420
H           8.35634800     2.79065700     3.89251180
O           3.59838870    16.47524640     5.00037430
H           4.26380920    15.88725190     5.35773990
H           3.66917040    16.36870960     4.05175830
O          17.43810460    10.90006070     7.09213400
H          17.23977660    11.59464550     7.72018670
H          16.59445760    10.47959420     6.92569880
O          17.79977800     3.98820400     3.41971060
H          18.70459940     3.90505410     3.72073790
H          17.87309270     4.12230300     2.47479030
O          18.79035380     1.57573130    14.52930070
H          18.06794930     1.42019180    13.92088410
H          18.42303090     2.15950110    15.19301800
O           7.86904860     3.82915310     0.62274910
H           8.61106200     3.24217510     0.76802800
H           7.62984990     3.69054030    -0.29365820
O           1.42553040    10.26713750     9.78831670
H           0.51192670    10.43865110     9.55997180
H           1.44408800    10.30255320    10.74468140
O           5.70240210    12.89032360    13.81567000
H           4.77150540    12.94127270    13.59871670
H           5.82662580    11.99442860    14.12899300
O          18.59552380    12.68118860    14.46420100
H          17.89636990    12.96496490    13.87523080
H          18.59084890    13.32737730    15.17035290
O           1.04522990    16.90503310    11.09897420
H           1.88044830    16.65590480    10.70327470
H           0.67597400    16.08137510    11.41751670
O           4.02322770    12.85549160    10.60066130
H           3.81291480    13.64798930    11.09457110
H           4.38018230    13.17693230     9.77271750
O          12.32156370    17.05176930     8.68338780
H          11.93320660    17.34988780     7.86086890
H          12.06778910    16.13110350     8.74824710
O          19.35878560    15.13208870     7.35761690
H          19.14841460    14.61823180     6.57792040
H          19.74217410    14.49949170     7.96512460
O           3.16713050    12.19647120    13.73263070
H           2.87656780    12.96269700    13.23795600
H           2.81836890    12.33364300    14.61341570
O          12.67921160     8.39103030    10.97621630
H          13.04098610     7.64961530    10.49077610
H          12.02606490     8.76766870    10.38649180
O           2.13678260     1.90732770    11.36513710
H           1.94652840     2.17190070    12.26515670
H           1.71099090     1.05524250    11.27088260
O          13.56545260     7.74940010     5.09624810
H          13.99028970     8.46612830     4.62503050
H          13.60624220     8.01025680     6.01631500
O           2.37300870     0.36812590     0.61620710
H           1.61225320     0.55795190     1.16525090
H           2.96032050     1.11100670     0.75558010
O          14.52954480    16.06649970     7.43132260
H          13.78124620    15.69409750     6.96484990
H          14.14413360    16.51015850     8.18687340
O          17.32619670     1.17862130     4.55746650
H          17.53237920     2.09614940     4.37896250
H          18.17677120     0.73971840     4.56826540
O          10.24720670    16.77756880     2.31022450
H          10.02262590    17.54464720     2.83689830
H          11.20218750    16.72870450     2.35331230
O           1.36627770     2.52460190     7.39895580
H           1.72461800     2.83737470     8.22961620
H           1.76284890     1.66204260     7.27666330
O           9.79594990    13.77414890    15.04249190
H          10.30823230    12.98003290    14.89024350
H          10.35680290    14.31875900    15.59482770
O          15.14928250    10.04609970     3.64564660
H          15.72248550     9.88777070     2.89557890
H          14.88811110    10.96282010     3.55820560
O          12.64606290     3.17609790     2.67976860
H          13.11005310     3.30232520     3.50742290
H          13.23218920     3.54345700     2.01815370
O          11.37529370     9.79763700     5.36241960
H          11.76707840     8.93439960     5.22991610
H          11.63458630    10.29951190     4.58968400
O          13.92068860     7.33261780     0.42675550
H          14.30886750     8.20150660     0.32389840
H          13.19277290     7.46583460     1.03389920
O          10.68146990    16.66848950     6.45742420
H          11.10480980    16.08445550     5.82820270
H           9.75630280    16.42504690     6.42528630
O           1.56368730     9.67663100     7.16111040
H           1.72679520     9.59992890     8.10118680
H           2.43554880     9.73986150     6.77112250
O          10.06610110     2.14844700     0.76819600
H          10.40876390     1.40982720     0.26495210
H          10.73137190     2.31200120     1.43669930
O           0.01593790    10.95298670     4.94762610
H           0.76158150    10.43934150     5.25813580
H          -0.69967840    10.71743200     5.53808210
O           3.60636810     9.10952000     2.91647240
H           2.69170670     8.82844160     2.94141290
H           4.09003070     8.32763580     2.65008850
O          10.75924870    13.00873470    12.36827560
H          10.29626940    13.81544210    12.59433940
H          11.68591310    13.23135950    12.45750710
O          10.15664580     4.81456850    14.62494470
H          10.07462790     3.90516470    14.91215520
H          11.00094320     5.10063650    14.97359850
O           8.83199310    14.30189990     2.52517130
H           9.31733610    15.11138820     2.36579390
H           9.35281280    13.62219520     2.09740850
O           7.75443460     6.72900200     4.91598220
H           6.99927140     6.45033260     5.43396430
H           7.64608760     6.28348830     4.07573840
O           7.18061260    10.81170850     4.26270530
H           7.66387750    10.24425890     4.86327840
H           6.82613950    10.21560380     3.60297780
O          14.09638210     1.03995510    16.47816850
H          14.38222890     1.61920070    15.77177140
H          14.19479470     1.56457420    17.27272800
O           6.15628240     1.99733260     9.03159520
H           6.36251830     1.15307710     9.43275740
H           6.16205020     1.82307430     8.09040830
O           1.12488560     8.15948580     2.46840170
H           1.04493430     7.72659020     3.31836650
H           1.21037200     7.44158270     1.84107600
O           4.13542940     1.47117520     4.07301570
H           3.45041750     0.85438820     4.33101560
H           3.79801560     2.32752700     4.33577920
O          11.20259000    13.81862450     5.61102200
H          11.89690210    13.79797740     4.95243600
H          10.47920990    13.33544540     5.21165940
O           9.73091980     8.29368500     1.29218230
H          10.45269970     8.23496340     1.91813580
H           9.25159360     7.47239970     1.40158550
O          10.16316320     1.22966190     4.36406560
H          11.08047960     1.43986130     4.18919800
H          10.17232420     0.81777670     5.22806740
O           8.18202880    10.61622430     0.97528930
H           8.51412490     9.77647590     1.29272660
H           7.29930210    10.67810340     1.34024990
O           5.35437580    14.17371940     5.54753020
H           4.78542330    14.14015960     4.77850530
H           6.11026380    13.63671590     5.30985070
