1523
Conf 1. Box X: 21.712 0.000 0.000 Y: 0.000 26.574 0.000 Z: 0.000 0.000 26.543
N          10.58476350    14.41795250    10.88158700
H          11.46362590    14.00692840    11.19955160
C           9.88244720    14.15449430     9.66558930
C           8.93642330    15.34398750     9.41176220
C           9.28423400    16.32922360    10.31961540
C          10.38015650    15.77883430    11.14799880
C           7.90354920    15.31725220     8.28949640
H           6.91108610    14.96964550     8.62565230
H           8.20404340    14.61853890     7.48929600
H           7.85713860    16.31800650     7.82564780
O          10.02477360    13.14205460     9.05291180
C           8.74437430    17.65777020    10.56484220
H           9.03212640    18.04134180    11.55149460
C           7.94319440    18.38504980     9.80243590
H           7.63500790    19.36664200    10.17436790
H           7.51574420    18.03909490     8.85668950
C          11.18986990    16.36577220    12.19390300
H          11.27748200    17.45440860    12.29688450
N          12.01218890    14.41784950    13.47644140
H          11.13350960    13.92810150    13.63261890
C          12.19842820    15.65134530    12.94998930
C          13.46889400    16.16320230    13.44477840
C          13.95739080    15.23478600    14.35897640
C          13.02808280    14.09338090    14.33982090
C          13.97105310    17.46335030    12.98874000
H          15.07131290    17.55405620    12.98492620
H          13.56850340    18.29567720    13.59206490
H          13.67807290    17.59729770    11.93278600
C          13.14710520    12.98352720    15.16950510
H          13.95303820    13.03455260    15.91050530
N          11.35733700    11.66422940    13.98840810
H          11.63250830    11.98639200    13.06276420
C          12.32181640    11.84619050    14.99969390
C          12.37695790    10.65247060    15.75281140
C          11.41607190     9.74149230    15.21296690
C          10.83957580    10.38705730    14.14144990
C          11.06475730     8.43107890    15.86397270
H           9.99391270     8.25064950    15.66509530
H          11.24556060     8.28165340    16.94276620
H          11.62931920     7.63278340    15.35132500
C           9.88164810     9.91198440    13.17191410
H           9.78307440     8.82160190    13.12124630
N           8.76426410    12.04022690    12.26815610
H           9.09373950    12.72788520    12.94713970
C           9.06410310    10.60500430    12.31475730
C           8.07444670    10.02622130    11.39967920
C           7.31515600    10.99919220    10.80492590
C           7.68962760    12.29827790    11.37071990
C           7.73781590     8.61697010    11.15416720
H           6.66471580     8.49897190    11.38514230
H           8.18362710     7.95349930    11.91566180
H           8.02070900     8.26126670    10.14805130
O           7.20481300    13.36664100    11.12641050
C           6.22598270    10.97766590     9.79124550
H           5.76813980    11.93070890     9.50262170
C           5.82629490     9.88197040     9.08680440
H           5.09888740    10.04321380     8.28573320
H           6.26074600     8.87924190     9.13802050
C          13.10651300    10.42439560    17.03108020
C          12.46862130    10.86841490    18.30058290
C          12.27187820    12.39791390    18.28838920
O          11.05480860    12.85395910    17.80394940
O          13.12057780    13.22748470    18.56086920
H          14.11966990    10.86214730    17.00456050
H          13.36636830     9.35146900    17.02015110
H          13.14911170    10.53518200    19.10351750
H          11.51984690    10.30595870    18.34839060
H          10.59570790    12.01575180    17.62129020
C          15.27766700    15.32730770    15.09163860
C          14.93317130    15.92231080    16.45489120
C          14.41067410    17.32977870    16.45789530
O          14.94452950    18.28741460    15.90229510
O          13.24343010    17.53425790    17.13391490
H          15.78356460    14.34605500    15.08627030
H          15.93240830    16.06980320    14.60293480
H          14.22684960    15.26687340    16.99371530
H          15.89582730    15.97096160    16.99316980
H          12.84535120    16.66652680    17.32181550
O           7.87750240    23.75809670    16.62005040
H           7.72836490    24.64838410    16.30164910
H           8.38315870    23.87303540    17.42462160
O          16.92623330    18.19431690    18.31180570
H          17.37714580    17.68314170    17.63978580
H          16.90533260    19.08487700    17.96152310
O           8.08536820     9.71358200     5.40431690
H           8.66293810     8.97364620     5.59177540
H           8.11443230    10.24728110     6.19838950
O           4.97263430     1.99852320    19.79581260
H           5.86372380     1.69084310    19.62990190
H           4.79245660     2.60785150    19.07993130
O           2.75924870    21.21642680    24.19723320
H           3.01421360    21.96492770    23.65781400
H           2.85967920    20.45971870    23.61970520
O           6.39228150    -0.04781440    12.27102380
H           5.99187950     0.52034040    12.92913440
H           7.32139970    -0.06259300    12.50070670
O           4.46664620     6.24306060     6.95260950
H           3.64092730     5.85499620     6.66308160
H           4.24554350     7.15161090     7.15726180
O           0.39413460    15.49896530     7.79340170
H          -0.52491040    15.73565390     7.66863820
H           0.85612780    16.33694840     7.81751730
O          10.27435780    19.33951950    18.86681560
H          11.18220420    19.48843190    19.13114550
H          10.20712380    18.39009860    18.76526640
O           1.40532020     5.51432560     9.12567420
H           1.33940030     5.49389030     8.17096520
H           1.42271900     4.59289980     9.38433170
O          19.46051030    12.50061700    16.58720400
H          19.18438910    12.42712500    15.67364690
H          19.06435010    13.31685540    16.89223290
O          11.76379110    21.09400370    25.18086620
H          10.97845360    21.46195790    24.77579120
H          11.62358000    21.20666890    26.12101360
O          10.83226680    25.38597680    10.66185950
H          10.52960680    24.57981490    11.07986740
H          11.76555160    25.23987580    10.50737950
O           8.08126830     1.55152700     0.39881630
H           7.51019480     1.48989630    -0.36689070
H           7.73611260     2.29311230     0.89595910
O           9.79241850    20.88457680    21.42005920
H           9.75421430    20.48242570    20.55227660
H           9.99186040    20.15903470    22.01170350
O          17.30864720    17.22557640    25.85198020
H          16.71709630    17.11745260    26.59670070
H          17.77084540    18.04463010    26.03018380
O          10.68076990    19.89821430    15.91088100
H          10.08116050    19.21121980    15.61977770
H          10.79589560    19.73479080    16.84697530
O          10.37708570     4.93148950    18.66615490
H          11.06200500     5.59088180    18.77714920
H          10.82869430     4.17905950    18.28388600
O          17.37082860     1.48457910     8.04339600
H          17.23180010     0.61858700     7.66004230
H          16.54006580     1.94126080     7.91108660
O           9.94407750    11.64283080    20.86381720
H           9.71510030    10.74780940    20.61334230
H           9.11505790    12.03391360    21.13952640
O           5.92284970    18.58337400    15.64284990
H           6.78819560    18.60915180    15.23450660
H           5.68714330    19.50330350    15.76286410
O           0.33267600    24.26170350    11.30852600
H          -0.11788840    24.09480670    12.13639640
H           0.07526590    25.15254400    11.07109550
O          11.24667450     3.79079200    24.83950810
H          10.87811180     3.00708150    25.24717520
H          10.48739910     4.26179740    24.49616620
O           1.87540150    26.29712680     9.54791640
H           1.05033780    26.57610890     9.94499300
H           2.07869720    25.46595570     9.97693730
O          15.11482810    15.25782680    10.55160330
H          14.52645590    14.51632400    10.69381330
H          15.35611630    15.19826980     9.62723060
O           7.84655950    13.38936900    21.44480710
H           7.56890960    14.04381280    22.08577920
H           7.05156040    13.18334480    20.95311360
O          10.64525700     1.04671530    26.19239810
H          10.97519210     0.17265360    26.40070340
H           9.70943550     1.00253490    26.38866420
O           6.31576440    17.63766670    18.09321780
H           6.62191960    18.41317180    18.56342510
H           5.74351600    17.98331260    17.40816880
O           0.28652860    19.17740440     4.02185820
H           1.20537660    19.32681660     4.24462750
H           0.23915290    19.33918570     3.07961940
O           0.23880390    14.88298510     4.77089500
H           0.83634670    14.15584090     4.94536210
H          -0.52524800    14.70173170     5.31825490
O          20.24045560     9.05853460     9.20725920
H          20.58715630     8.18839070     9.40444180
H          20.50421140     9.22190000     8.30173300
O          16.76754190    25.36454010     8.29601670
H          17.44339370    24.68931580     8.35543630
H          15.98947330    24.89836880     7.99019910
O          21.46426200     5.73766470     4.13310340
H          20.71889110     5.38242200     4.61731340
H          21.29981230     6.67997120     4.09781170
O          17.38119130     6.46824310    14.82934190
H          16.48057560     6.16820100    14.70646670
H          17.53562360     6.38348820    15.77019210
O           4.86847780     6.61391590    24.96190450
H           5.62486270     7.14976070    24.72319030
H           4.26433940     6.71092750    24.22580910
O           2.76109790    25.78698540     1.20919500
H           2.04033660    26.14926340     0.69393710
H           2.34052660    25.42996410     1.99142680
O           9.77076240     1.46415620    10.31180950
H          10.24093340     1.69402840     9.51035500
H          10.17428680     0.64531650    10.59973430
O           5.17215820    19.16163060     6.81111720
H           4.90218830    18.25828170     6.64586730
H           5.95540050    19.27965740     6.27368500
O           7.79173850     7.39070180    -0.03799890
H           8.14936160     8.18515210    -0.43446800
H           7.68325230     7.61248450     0.88681150
O           3.35648540    18.72635270     9.72066020
H           2.59459780    18.42052080     9.22849660
H           3.48790360    19.62673190     9.42354010
O           0.83514980    18.67312240     8.43468280
H           0.80550870    19.41278840     7.82784940
H          -0.03797050    18.64943700     8.82625960
O           5.16506480    25.18940160     9.13549610
H           4.42637250    24.95215800     9.69610400
H           5.85706330    25.44370840     9.74598690
O           4.65934940     1.64135890    26.56715390
H           4.86315820     2.01954510    25.71177670
H           4.30361560     0.77542110    26.36755940
O           3.36425300     6.99380160    12.81281280
H           2.63560490     7.60608530    12.71077440
H           3.17478470     6.29040670    12.19187070
O           5.24115180     9.93467810    13.57196810
H           4.99391460     9.34518720    12.85950280
H           5.93266010     9.46724800    14.04053780
O           9.09578420    16.70496370    25.44447520
H           9.50722030    16.14491270    24.78622250
H           8.70351510    16.09353830    26.06778530
O          18.67973710    24.52642630     5.71004530
H          18.61808780    25.46848110     5.55204440
H          18.24645420    24.12810130     4.95517160
O           4.07965850    18.92492490    26.57232860
H           4.19274900    19.05205350    25.63037300
H           4.59936140    18.14656450    26.77306370
O          16.65909390    20.10466380     7.99024150
H          17.56064410    20.33540920     7.76620100
H          16.56425290    19.19806290     7.69816210
O          21.45496370    24.55791280     5.74076940
H          20.57010460    24.85177040     5.52419610
H          21.35442540    24.08300970     6.56574770
O          11.57436660    16.84378430    20.93377300
H          12.37728020    16.84177210    20.41266250
H          10.99798870    16.22302060    20.48804660
O           5.99716760    25.87067790     2.30722810
H           5.59587480    26.49943730     1.70734750
H           5.37338730    25.79706000     3.02952360
O           4.44123650    16.36629490    10.83615110
H           3.94500060    17.18047520    10.75193410
H           4.39391900    15.96606350     9.96792980
O          10.91259860    21.54398160     1.69918860
H          10.21213250    21.39134410     2.33344480
H          10.58615210    22.25556180     1.14844670
O           0.59076510    16.69030570    16.65536120
H           1.01102730    16.07974430    17.26102450
H           0.15026570    16.12934490    16.01699260
O           2.74317070     6.64407400    17.80109410
H           3.63450050     6.92905660    17.59972380
H           2.81383320     5.69575170    17.91028590
O           4.83336730    11.79233840    17.76443290
H           5.52813430    11.54898550    17.15262410
H           4.07131390    11.29185390    17.47284510
O          19.05735780     8.21905610    21.00629430
H          19.20451160     8.76293370    21.78009990
H          18.32971190     7.64707330    21.25041960
O           6.14108180    14.68907260    24.29274560
H           5.60549260    15.35062690    23.85488510
H           5.74003310    13.85533810    24.04722790
O          13.97501660    20.61626240    17.00758550
H          13.50032140    20.33325580    16.22604560
H          13.74458030    19.96991540    17.67494390
O          19.83711240     2.61132190     8.05846310
H          18.89533230     2.44479990     8.01907440
H          20.05242350     2.55024100     8.98913100
O          17.04369350    25.89026830    24.62337110
H          17.34267430    25.72039220    25.51667020
H          16.13663290    26.17856980    24.72513770
O          11.41489120    11.12663360     4.80926280
H          10.96522050    11.95043280     4.62115720
H          11.69003770    11.20705890     5.72253040
O           1.43551730    24.84830280    14.09536170
H           0.57151420    25.25405500    14.02398010
H           2.04010960    25.51243970    13.76427080
O           3.14959240    10.42007730    21.39977070
H           2.53403760     9.82429030    20.97273250
H           2.92971230    11.28324790    21.04931640
O           0.77730760    11.27192020    24.28171920
H           0.49739750    10.62849520    23.63065530
H           1.73216920    11.28000160    24.21534350
O           3.96956540    21.13369180     8.53884510
H           3.81215760    22.00595280     8.17743590
H           4.42880820    20.66498950     7.84196230
O          20.88072200    20.82867620    10.28185180
H          20.61273000    21.41136740    10.99240210
H          21.64275170    21.25880810     9.89387320
O          21.22535710    10.64991660    19.28610990
H          20.48769190    10.16795060    18.91222380
H          20.82926750    11.42899040    19.67648320
O           8.90931990     2.82775550    14.80661110
H           8.79292010     2.77910470    15.75546070
H           9.44740010     3.60769700    14.67099000
O          12.13363740     8.14188000    20.52734570
H          12.82011320     8.57525250    21.03446580
H          12.59902480     7.49226520    20.00042340
O          15.35442540     7.88839670    18.97862240
H          15.58362960     8.37705520    18.18811040
H          16.06935880     7.26145510    19.08838270
O           3.92266940     9.56435870     0.54569940
H           3.56937120    10.31147480     1.02863810
H           3.75929450     9.77456570    -0.37373040
O          12.94439790    13.46856780     8.88670160
H          12.49992850    14.24844460     8.55433370
H          13.46633430    13.15694520     8.14730640
O           3.45872400    11.90507980     2.04467230
H           3.51990600    11.56475160     2.93723320
H           3.88798240    12.75971510     2.08425830
O          18.32034490    22.71544080    26.23864360
H          19.15447040    22.75574490    25.77083970
H          18.33947940    23.46958730    26.82781790
O          16.63057140     4.47399470     7.29998250
H          15.81632710     4.58626030     7.79052830
H          16.35659790     4.09588860     6.46439500
O          12.13703060    22.76641080    22.04335980
H          11.61002640    22.81580730    22.84089090
H          12.97351170    22.40085030    22.33127980
O          19.14480970    17.80097390     4.74573950
H          19.07675360    17.53885460     5.66383220
H          20.08456990    17.90208630     4.59455440
O           4.79689690    20.30588910     2.40892550
H           4.58268360    19.83338930     1.60450660
H           5.43450260    20.96580120     2.13651700
O           3.28746700     0.51565070    24.03161620
H           4.09783740     0.05927990    23.80521770
H           2.92307000     0.78864470    23.18964200
O          12.49182990     1.05554290    22.35656550
H          13.22461800     1.58982660    22.66282460
H          12.43179230     0.34363120    22.99359700
O          13.44607830    24.00665280     2.04410150
H          13.68625350    23.65827370     1.18550990
H          14.22131250    24.48838040     2.33251480
O          18.03532410    11.63990880    11.30855460
H          18.26205060    10.71081070    11.34859750
H          18.68487360    12.01967140    10.71686360
O          19.74834820    19.70114520    19.48033330
H          18.85456280    19.37680630    19.59070010
H          19.85871700    19.78146740    18.53291700
O           2.92597680     7.79421090     9.25282000
H           3.57039170     7.34120800     9.79664900
H           2.18925950     7.18561030     9.19727520
O          12.79107950     7.25141860     6.76798580
H          12.43299770     7.47959570     7.62585830
H          13.54113480     7.83590940     6.65835670
O           1.53548620    19.12830730    12.24443630
H           2.24054050    19.75009160    12.06412030
H           0.73610120    19.59578510    12.00219820
O           4.49072460     1.80367330     2.63665220
H           4.47705550     1.86713650     1.68165620
H           3.83609100     2.43822340     2.92825560
O          14.28919220     0.83103030     7.64176180
H          15.19018940     0.54960150     7.80060960
H          13.87955950     0.08601040     7.20201350
O          14.97846700     2.92143490     5.51656250
H          14.22510340     2.42781690     5.19249770
H          14.71450710     3.83840510     5.44091560
O          13.80366420    11.78771500     3.11451700
H          13.63940720    11.59328370     2.19177720
H          13.38926410    11.06680580     3.58864280
O           3.31307600    24.03705600    23.35631180
H           3.76139450    24.09986110    22.51292800
H           2.43664260    24.38314630    23.18803220
O          21.30151940     0.39467850    10.86755080
H          20.38114740     0.63807480    10.76800920
H          21.69624330     1.13428210    11.32951550
O          21.29770470    24.66160580    26.24656300
H          21.86535450    25.40595050    26.04667090
H          21.78277210    23.89901540    25.93128970
O           3.52099130     9.91176320    24.10979650
H           3.54059890     8.95961090    24.01360320
H           3.45473670    10.24170970    23.21370700
O           8.72953130    26.52261540    23.00648500
H           9.57392220    26.66695210    23.43357090
H           8.47357850    25.63993070    23.27403830
O           6.52941610     2.04128790    24.58708190
H           6.47619340     1.52874710    23.78042030
H           6.86030670     2.89475110    24.30718040
O          17.21252060    22.56405450    21.00223350
H          17.25008010    21.64665410    21.27278140
H          16.87380980    23.02621080    21.76899340
O           3.75778960     1.60840890     6.70807550
H           3.09094520     1.06689070     7.13034150
H           3.29174710     2.05404230     6.00065370
O           4.38589950    24.57117080    20.98766520
H           3.70556550    25.20434570    20.75860980
H           4.43850900    23.99088860    20.22823330
O          11.92594810    21.27839470     7.32786460
H          12.77983380    21.13784980     7.73695900
H          11.31477450    21.33449550     8.06240650
O          11.58757690    24.89121440    -0.01258540
H          12.01690010    24.70264240     0.82189300
H          10.91008470    24.21953200    -0.09055020
O          18.23937230     3.41639470     4.97784570
H          18.52361870     3.53111310     5.88463930
H          18.30825420     4.29006720     4.59290030
O           1.78267190    15.71879480     0.77527930
H           2.01815320    16.55101590     1.18538780
H           0.99908360    15.43347070     1.24518510
O           1.53272820     2.11931280    17.43494220
H           0.78285030     2.36858990    17.97510340
H           1.34120750     2.49011470    16.57351490
O          19.34938050    13.60177330     3.72676970
H          19.10526280    12.90612510     4.33727120
H          18.52550700    14.04739090     3.52956990
O           2.25721450    13.11344050     5.66390470
H           2.78385260    13.28705690     6.44412280
H           2.78696630    12.50589850     5.14767930
O           1.71993730     6.24876260     6.18024540
H           0.86047270     6.22389550     5.75960920
H           2.33173270     6.42276720     5.46494100
O           1.55528930    26.29454800     6.84394550
H           1.85166930    25.94582940     7.68465090
H           0.73876390    25.82796670     6.66556600
O          15.49696250    16.73722840     4.79463290
H          14.90600400    17.32508660     4.32407710
H          16.25498770    16.64700700     4.21714830
O           1.08775330     0.07226130    25.36278340
H           2.00950810     0.13553710    25.11259270
O          18.79070090     1.22913500    15.80106640
H          19.14542960     0.79710050    16.57807540
H          17.91695020     1.51732780    16.06514740
O          16.60489270    17.59328080     7.15575980
H          16.21087070    16.78595730     7.48622610
H          16.60882950    17.48599050     6.20459990
O           8.79971410     5.44509940     8.08402250
H           8.23325250     4.71425390     7.83659930
H           8.70046900     6.07683800     7.37178040
O           0.52065280    12.23404600     8.12762360
H           0.16701610    13.12326530     8.14910220
H           1.26941390    12.28834440     7.53378820
O           3.36870000     0.47201680    13.03572940
H           3.86486240     0.86762570    13.75235180
H           3.99035360     0.42900990    12.30914310
O           7.87823490    12.87123390    16.48621180
H           6.95189860    12.63427830    16.44168090
H           8.28483300    12.15701770    16.97693060
O          11.80815410     2.02978280     8.41552930
H          12.28952120     1.42536540     7.85055300
H          11.42665200     2.66836120     7.81311320
O          21.42288970     9.34928040    22.66155050
H          21.51622960     9.20915510    21.71927450
H          21.33133510     8.46919920    23.02666280
O           5.68947320    21.64949420    23.19325070
H           5.28110980    20.85065650    23.52691080
H           6.14680390    22.01833150    23.94892120
O          15.80237010     0.17733000    16.23936650
H          15.29617600     0.66199200    15.58736710
H          15.60181050    -0.74192770    16.06337360
O          21.57046510     2.78186850    25.56220820
H          20.70751760     2.40948920    25.38085170
H          21.61887170     2.82014700    26.51741600
O          17.98709110    19.78215980     0.07853050
H          18.01393130    19.51759910     0.99805190
H          18.07548900    20.73501010     0.10077210
O           9.10718820     5.56588220    24.91119770
H           9.05481620     5.74963710    23.97326280
H           8.46445750     6.15459680    25.30685420
O           3.16965010    18.98612400    22.29593090
H           2.90714550    19.08024600    21.38025280
H           4.12575530    19.02755930    22.27646830
O          14.96885490     8.95585820    14.53711890
H          14.74929050     9.84251690    14.25100990
H          15.75524430     9.06459240    15.07190800
O          20.27159880    23.89481740    16.11646650
H          21.15066150    24.03201870    16.46953200
H          19.74864200    24.60184670    16.49443050
O          15.55099680     3.03473620    20.86123090
H          15.65741060     2.78290130    21.77855680
H          15.16368290     2.26476620    20.44485860
O          11.31528000     4.51259570     6.89334340
H          10.48651600     4.89802690     7.17764380
H          11.44692130     4.85342550     6.00861930
O          13.86756990    26.29655840    13.07444480
H          13.72777080    25.61255260    13.72929380
H          14.41581820    25.88193320    12.40830520
O          12.12376120     4.93179660     0.56601070
H          11.90067580     4.59810690    -0.30296400
H          12.37165160     4.15351150     1.06506470
O           0.65182790    13.86964890    10.80100250
H           1.23354910    14.27847580    11.44185730
H           0.73306090    14.41729450    10.02015880
O          19.15552520    24.73577120    20.60011860
H          18.48108860    24.14328770    20.93227770
H          19.29700660    25.36045460    21.31144520
O          14.34628870     6.35606910    14.70534800
H          14.42561910     7.30531070    14.79957870
H          13.51569560     6.22948980    14.24673650
O           2.97474770    24.22101970    11.01879880
H           3.51177500    23.85237120    11.72017770
H           2.07948110    24.17794230    11.35476780
O           7.27523710    20.24038890    18.35147480
H           6.86975770    20.61161420    19.13506130
H           8.11482050    19.89632420    18.65635300
O          18.34667590    16.28147700    13.42914580
H          18.43110470    16.80002020    12.62901020
H          17.96884730    15.45159440    13.13798430
O          14.47309780     0.21392580    25.69552230
H          13.96854400     0.66860570    25.02104190
H          14.50446030     0.83010670    26.42734720
O          10.07250310     0.13139150    16.83581350
H           9.14723110    -0.00191650    16.63006970
H          10.08234500     0.34172960    17.76956560
O           9.63007450    21.44531250     9.04014780
H           9.61873720    21.11751940     9.93939970
H           8.76726630    21.84162900     8.91878990
O           7.30193230    21.00354770    25.63292500
H           7.51563070    20.72328570    26.52287860
H           7.94949820    20.56440350    25.08152580
O          12.33834550     5.33332970    21.97028730
H          12.67749690     5.63006450    21.12580110
H          13.11906150     5.19338370    22.50613210
O           2.34080980    16.94708820    24.78476520
H           1.85357860    17.63088040    25.24440000
H           2.72890950    16.41925810    25.48262210
O           2.85814190     5.44058280    26.76325610
H           3.58775710     5.70310350    26.20202640
H           2.08339120     5.80438760    26.33472440
O          21.77806660    23.80075070    20.01853560
H          22.32834240    24.46068190    20.44034190
H          20.88538360    24.12914470    20.12579540
O          16.03685760    12.75387670    17.72749140
H          15.51752280    12.95295810    18.50652120
H          16.75570490    13.38549140    17.75100710
O          21.27440640     6.69044450    23.36307140
H          20.45586780     6.30509230    23.05045510
H          21.26752280     6.53394560    24.30736730
O          19.20172500     5.65828940     6.81829210
H          19.34165760     6.07673220     7.66773700
H          18.27868080     5.40496870     6.82524060
O          15.83960060    13.64853190    20.53662490
H          16.48545270    12.96654990    20.72104450
H          15.37766650    13.77149490    21.36591720
O           1.21092700    25.49735830    22.38347050
H           1.36006930    26.43902020    22.29824640
H           0.93893720    25.37934300    23.29359440
O          16.54939270    16.12552830    22.96436690
H          16.33689120    16.35951040    23.86787610
H          15.77544780    15.65848640    22.64954190
O           6.13603020    17.14467810     0.70391580
H           6.70049100    16.39918140     0.49933740
H           6.48100660    17.48712540     1.52850840
O          12.40160080    25.50299070     4.13911630
H          12.47117520    24.86697010     4.85106420
H          12.67916580    25.02146910     3.35980460
O           8.62103750    22.85942270     3.25524570
H           9.13466360    22.72101590     4.05102540
H           8.26997090    23.74509620     3.34778400
O           8.52492050    19.10435680    24.08195690
H           9.35680100    19.12811470    23.60904690
H           8.61474510    18.36874960    24.68779950
O          11.10679910    15.58711340    23.49076080
H          11.80125900    15.90800570    24.06607250
H          11.24149800    16.05681990    22.66767880
O           1.35597610     2.61593480     9.54467870
H           1.38865280     2.24780420    10.42765330
H           0.98099620     1.91777940     9.00783440
O           4.21356490     1.54544500    10.30061910
H           3.58453660     0.97474000     9.85919950
H           4.28983120     2.30735640     9.72624490
O           1.55305670    21.76817890    26.53777310
H           1.98634340    21.59427450    25.70215800
H           2.24123190    22.13544650    27.09253500
O          12.18371490    25.12678340    20.56555370
H          11.94715790    24.41017340    21.15440180
H          12.98196130    25.49467850    20.94461250
O          13.57825570    19.12958150    24.73798370
H          14.47019480    19.47688290    24.74570850
H          13.02615070    19.88270190    24.94826890
O           4.53181650    22.81945610    18.57699970
H           5.09766580    22.33134840    19.17516140
H           3.78830150    22.23694990    18.42174340
O          18.94192890     8.88455010    11.51376820
H          19.40483670     8.33817100    12.14891910
H          19.56082730     8.98826120    10.79096700
O          15.68933870    12.18973830    25.78575900
H          14.73302940    12.15939810    25.81376080
H          15.94043830    11.39582350    25.31365590
O          19.00299070    18.17884060     2.08567980
H          19.82716370    18.32700540     1.62198110
H          19.16490360    18.50327300     2.97154640
O           3.12972640    19.19503020     4.35077330
H           3.72190190    19.34818080     5.08705090
H           3.61220170    19.50905800     3.58602810
O          10.31676960    13.34196950     3.66174600
H          10.94681840    13.45896820     2.95070290
H          10.23760130    14.21020220     4.05688710
O           4.59413430    16.25085450    23.06644440
H           3.76411150    16.64009670    23.34173390
H           4.79384230    16.67716220    22.23301120
O          10.78445720    18.79581260    22.67792130
H          11.16896150    18.22129630    22.01586530
H          11.21621230    18.54333110    23.49405480
O           3.69539640    13.13019470     7.85026410
H           3.97106650    14.01522350     8.08893490
H           4.50234790    12.69321350     7.57803630
O          15.78505330    24.21501730    19.17902180
H          16.25990870    23.71573070    19.84344480
H          16.29804800    25.01561160    19.06895070
O           1.35276220    14.80554680    19.11287690
H           0.98882970    14.09405040    18.58604050
H           2.30021100    14.72400000    19.00368500
O           0.41690730    18.38146780    23.08280940
H           0.18543820    18.33259200    22.15530400
H           1.36255360    18.52969930    23.08618160
O          14.70433040     9.38497640    25.09955220
H          14.43990520     9.24380780    24.19049640
H          13.92167570     9.18026830    25.61119650
O          17.35193630    25.29636380     0.97588750
H          18.25538830    25.57412720     1.12705050
H          16.84305000    25.76689340     1.63609100
O           7.06556610    22.29922490    14.37122250
H           6.59492780    21.66293330    14.90961460
H           7.55065060    22.83312030    15.00041290
O          18.06070710    20.24136160    22.19541170
H          18.35841370    19.33215330    22.22605320
H          18.86688420    20.75741000    22.19310760
O           5.54886050    19.03504940    24.01316640
H           5.73995110    18.09765050    23.98153880
H           6.35203170    19.43197630    24.35020830
O           8.96617410     2.78140880     4.24509380
H           8.03586100     2.69200940     4.45187280
H           9.32228760     1.90005730     4.35750010
O           8.12767120    21.39341930    11.61921120
H           7.80884360    21.27513310    12.51396750
H           7.41112800    21.83818240    11.16645810
O           5.89879610    26.57956310    22.48309330
H           5.21803570    26.23635480    21.90429690
H           6.70929430    26.48319820    21.98305320
O           2.73976040     7.09051280    23.30220790
H           2.86651040     6.73972180    22.42066760
H           1.87997340     7.51011420    23.27168080
O           1.30779360     8.84985160     3.34344270
H           1.78996940     8.40552430     2.64608290
H           1.85397910     8.73748300     4.12144420
O          19.33153150     9.52794550    15.79136750
H          19.79558180    10.35896020    15.89287850
H          18.78044890     9.46450900    16.57144170
O          20.51641650     8.30793760     3.69218850
H          20.05515290     8.49968430     2.87567070
H          21.37827870     8.70906450     3.58028650
O          19.12353710     0.54039620     4.38319250
H          18.75514220     0.78744020     3.53496670
H          19.26292610     1.37250950     4.83528800
O          12.58446030    18.17510410     1.96724320
H          12.41038990    18.33133890     2.89542510
H          12.94616410    19.00216870     1.64886200
O          13.50511460    24.89331250    17.94313430
H          14.23025420    24.36861990    18.28240200
H          12.72308640    24.49962230    18.33000560
O          16.55782700     9.93892770    16.84854890
H          16.41024590    10.86458490    17.04248240
H          17.32493020     9.70415590    17.37072370
O          11.43495080     2.77692840     2.06353430
H          11.14204500     2.28980300     1.29337430
H          10.68563940     3.32334760     2.30058120
O           7.85985180    25.42775920     0.47521330
H           7.20325090    25.40930370     1.17146610
H           8.04016490    26.35814090     0.34064220
O          18.58159830     8.57689480    18.25393870
H          19.24471280     7.97704460    17.91234210
H          18.69678120     8.54557990    19.20366860
O          14.50374790    12.56182960     6.83119630
H          14.42593670    12.74346450     5.89461370
H          14.97710990    11.73105140     6.87553790
O           4.41964910     3.60757300    15.05346870
H           4.40689280     4.41959520    15.56011390
H           4.53312490     3.89271880    14.14680100
O          20.55063820    18.75345800    16.25258450
H          21.00178340    19.58736990    16.38407330
H          21.22541810    18.09045220    16.39863400
O          13.91815470    20.34376340     8.97416970
H          14.12782380    20.50917430     9.89335920
H          14.76992890    20.26987080     8.54375930
O          14.76508710    23.53620530    26.31697460
H          14.13758560    23.87424090    25.67806430
H          15.40998080    24.23698040    26.41319470
O          16.61950300     0.39866250     5.47416730
H          16.23371700     1.27435060     5.49807170
H          17.44781680     0.51447960     5.00864120
O           7.65609260    15.42884730     4.13344620
H           8.60074140    15.58138180     4.15800480
H           7.56567960    14.47735880     4.18568330
O          19.43824770    18.35587120     9.60684590
H          19.85765650    17.87292860    10.31895070
H          19.73410030    19.25876430     9.72298240
O          20.40387150    14.77032760    22.44740300
H          20.09180830    14.70989510    23.35028460
H          21.34676550    14.61744590    22.50914380
O           5.66936110    21.20399280    16.18258670
H           4.95324040    21.77981000    16.45061110
H           6.20135020    21.10022160    16.97154240
O          15.20997330    16.86863710    20.07096670
H          15.51293280    15.97421930    20.22738270
H          15.82681270    17.22177890    19.42984770
O          13.17893700    17.16662600     9.15807250
H          13.86726090    16.68374440     9.61553190
H          13.50836470    18.06398200     9.10845570
O           0.06732800     9.42926690    26.48123930
H           0.40654190     9.66356950    25.61737250
H           0.67244340     9.84334850    27.09654810
O          17.40220640    12.46537110    22.78633120
H          16.69286350    12.94217210    23.21729090
H          18.20195390    12.85693650    23.13748930
O           7.36703780    16.36632730    13.87332150
H           6.49144270    16.12837980    14.17819310
H           7.21496200    16.84661870    13.05942630
O           6.17819210     5.27501150    18.92752460
H           7.04539300     5.13933230    18.54570580
H           6.08697130     4.57192470    19.57062530
O          10.44863030    24.71610070    14.90662290
H          10.68085770    25.50823400    15.39120960
H          10.53417680    24.00983810    15.54701900
O           1.32801820    15.48650460    22.43185810
H           0.94178010    16.28843880    22.07978440
H           1.95959760    15.79091550    23.08352850
O           1.69488910    18.63182450    15.14435860
H           1.35535910    17.83582310    15.55342200
H           1.59581280    18.47916980    14.20461850
O          10.13246820     0.27523650     4.93164440
H          10.05947210     0.02849430     5.85361050
H          10.84177680    -0.27101900     4.59294650
O          16.75572590    11.83525370     1.81231140
H          16.09891700    12.34491250     2.28673860
H          16.42565160    11.79561520     0.91469660
O           5.87139990    12.18915270     6.44114640
H           6.31742480    12.31860830     5.60416650
H           6.41870590    11.55857750     6.90918830
O           3.71565340    10.77606870     4.69015600
H           3.41483210    10.44676880     5.53709130
H           4.63065910    10.50005250     4.63714120
O           8.21465210     6.42194320    14.74883080
H           7.39442540     6.46588560    14.25737670
H           8.82422730     5.97921420    14.15837190
O          19.79902080    26.25152780    22.67850300
H          19.08908840    26.46437840    23.28424450
H          20.50838090    26.84610180    22.92247200
O          14.12437920     1.98638870    14.49178600
H          13.57386490     1.84503220    15.26197050
H          13.88390160     1.27977420    13.89253810
O           4.87931440    25.93320080     4.73321290
H           5.01168820    25.61421780     5.62593840
H           4.31601430    26.70049860     4.83409550
O          19.25121120     1.18528080    25.99823760
H          19.56719210     0.31029930    26.22361370
H          19.14882280     1.62740470    26.84101680
O          19.35938840    11.56903360     6.56049680
H          19.93180470    11.89478400     5.86590580
H          18.83570860    10.88741210     6.13932610
O           5.00454140     8.52576640    20.04404830
H           4.51546100     7.70983360    20.15028000
H           4.48296070     9.17993350    20.50907520
O           7.75195790    17.86144830     2.94435950
H           7.83002850    18.48419380     3.66707850
H           7.78438190    17.00189210     3.36429310
O          20.79155920    17.20784760    11.67592530
H          20.78791620    17.91879080    12.31684490
H          21.65366550    16.80316160    11.77202030
O          21.55477520     4.06481410     6.88601300
H          20.99758150     3.39219050     7.27760600
H          21.05871960     4.87687160     6.98956250
O           2.50436880    20.63652610    17.34158130
H           2.50528430    20.04620740    16.58808520
H           2.84723190    21.46212960    16.99944880
O           3.08951950     6.17490910     3.92132310
H           2.39942930     5.67615370     3.48399970
H           3.87862400     5.64608140     3.80347540
O          16.16028980    22.16847800    16.82373240
H          15.52835850    21.45058820    16.86284640
H          15.66431520    22.93942640    17.09919360
O           5.58343220    16.54541400     5.61825470
H           4.99516200    16.62806510     4.86769530
H           6.39588930    16.19948010     5.24882980
O          19.97973250    23.36979680    24.02904320
H          19.63952830    22.96706390    23.23010640
H          20.16213610    24.27623750    23.78140450
O          14.23858450     2.79715870    23.32575040
H          14.39417930     3.24105410    24.15940480
H          14.25379750     3.49847270    22.67447470
O          16.08803750    10.36924460     7.20653680
H          15.40643500     9.78322320     6.87755630
H          16.79329490    10.30149170     6.56291100
O          13.52488330    24.88682560    10.25462250
H          14.10174560    24.20937920     9.90173820
H          14.11745550    25.51381680    10.66931820
O           8.02999400    23.73602100     6.28551580
H           7.72918320    24.16819000     5.48615790
H           8.47610000    24.42554090     6.77723170
O           5.58176040     1.35460000    14.46820740
H           6.30416580     1.96577020    14.32386680
H           4.99440190     1.81525560    15.06740470
O           7.85749910    25.36781310     4.16374250
H           8.55545900    26.01384350     4.05544040
H           7.24289800    25.55812840     3.45502760
O          13.12337400    11.43716910     0.52522970
H          12.48188880    12.08921910     0.24316710
H          12.77503110    10.60474300     0.20592040
O           2.93072510    22.28666310     2.86311600
H           3.51098160    22.89075660     2.39986060
H           3.32832050    21.42568020     2.73328280
O           9.55290890     9.01303770    23.62752910
H           9.92166810     8.35772420    23.03523450
H          10.24203590     9.16645430    24.27390480
O           2.49436860    19.19474030    19.77063180
H           1.65124230    18.75106620    19.86295320
H           2.43905740    19.64072230    18.92548560
O           1.61244390    16.29338070    12.10538770
H           1.69024470    17.24633790    12.15068820
H           2.51385400    15.98334410    12.01838590
O          21.33302880     0.34989540    14.57970140
H          20.54648590     0.54181810    15.09033780
H          21.63997650     1.20617100    14.28169630
O          18.25545310    17.01687050    16.00273900
H          18.24415020    16.79916570    15.07069300
H          19.02109530    17.58171650    16.10749440
O           7.70566750    26.16258050    19.99230380
H           8.63350010    26.37943270    20.08358960
H           7.66209700    25.22119330    20.16000560
O           0.42803000    17.37217140    20.44655610
H           0.78418070    16.66867070    19.90390010
H          -0.46266650    17.49917600    20.11981200
O           1.13130570    20.83374980     6.18234250
H           1.41431430    20.05154420     5.70874980
H           1.82982060    21.47067260     6.03188040
O          14.72876260     5.69474080    23.24786760
H          15.27158550     6.34756900    22.80583760
H          15.16449070     5.54994250    24.08775330
O           2.85375600     1.22716190    21.28063390
H           2.58975790     0.57978050    20.62684820
H           3.62603190     1.64794590    20.90279390
O          18.59038540    22.42582320     7.54603580
H          18.48265650    23.12065510     6.89654730
H          19.32480050    22.71561050     8.08722780
O           2.77745630    -0.15949970    18.82861330
H           3.62755200    -0.20818860    18.39134980
H           2.25092030     0.40839000    18.26603700
O           3.58824060    23.00150490    15.43827920
H           2.76807590    23.49494360    15.44725230
H           4.09593010    23.39365580    14.72785660
O           1.24483390     8.82530020    20.43474390
H           0.76751910     9.48465250    19.93110080
H           1.57890130     8.21633820    19.77611160
O           6.17253680     4.47667740    21.40926550
H           6.92736530     3.91040560    21.56989670
H           5.57030960     4.28251890    22.12749670
O          14.82345770     3.92555570    25.89182090
H          14.74341010     3.32346300    26.63162420
H          15.32606600     4.66349170    26.23688320
O           3.70540900     6.26552720    20.59792710
H           4.29003430     5.76533840    21.16736410
H           3.49288750     5.66353180    19.88471790
O          11.48368550    13.97943590     1.04742930
H          11.47059540    14.88849160     0.74796610
H          11.28700730    13.46623900     0.26373410
O          13.77840140     6.86122560     1.84499750
H          13.24372010     7.54175140     2.25393870
H          13.17243100     6.39364580     1.27019260
O          15.18539140    19.20616910    21.67785260
H          15.87178800    19.49046130    22.28140070
H          15.37295630    18.28079610    21.52057080
O          20.41410450    23.73648830    13.31951140
H          20.49010280    24.25616070    14.11976050
H          20.08087920    22.88917920    13.61490440
O          12.68789390     0.80388830    16.62452890
H          13.17216970    -0.01161630    16.75361250
H          11.76785760     0.53987350    16.63216210
O          13.51537610    20.81358150     1.46847440
H          13.77559570    21.29973220     0.68605820
H          12.57175160    20.95853420     1.53772180
O           7.36476420     0.35761640     9.67576120
H           7.99407670     1.04810520     9.88414190
H           6.93316750     0.16756960    10.50873090
O          10.25857450     8.01616480     3.16697760
H          10.10820290     7.24979730     3.72042230
H           9.48051740     8.06701950     2.61175490
O          14.43765450     4.51316120    16.68730550
H          15.27769760     4.05520110    16.65844150
H          14.55033490     5.25770710    16.09638790
O          15.64462090    25.75472070     2.94388440
H          15.59038450    26.69981960     3.08558250
H          15.83109860    25.39295200     3.81024500
O          20.71760940     6.60811190    10.44536500
H          21.29699900     5.92871620    10.10045620
H          19.84940720     6.20505090    10.44557380
O           1.32254310    10.59888740    11.62294580
H           0.77320200    11.21927360    11.14380550
H           1.65111640    10.00143530    10.95114040
O           8.54087160    19.06958580     5.28225710
H           9.06547450    18.75603290     6.01894520
H           8.97076130    19.88032720     5.00999690
O          20.15963170    12.41149810     9.88691520
H          20.80227470    13.04543210    10.20529940
H          20.65301320    11.84999370     9.28898530
O          12.33866790    22.45105360    19.23440740
H          12.57323930    23.06941600    19.92638590
H          12.40253160    21.59110450    19.64991000
O          21.36989590     2.59188990     1.87439820
H          20.55059620     2.91828490     2.24648140
H          21.65626140     1.91245700     2.48480580
O          16.52380370     3.31153730    14.84532260
H          15.70704650     2.81700750    14.77765370
H          16.60058590     3.76331380    14.00494580
O          17.94566920    12.00713440    14.25622270
H          17.82276920    11.17605110    14.71494670
H          17.46978950    11.89886190    13.43278690
O          13.56533150     4.66601130     8.70223520
H          13.14938070     5.23563340     8.05512810
H          12.96441360     3.92632720     8.79166790
O           7.54596610    12.24499800     4.25057510
H           7.97468190    12.29042150     3.39595750
H           7.74638460    11.36617950     4.57266470
O          21.24277110    20.17255780     1.23292470
H          21.70182040    20.92627720     0.86223150
H          20.83526040    19.74588010     0.47919200
O           7.52523610     8.49433040     2.64437940
H           7.82134150     8.93193150     3.44253850
H           6.58629130     8.36386010     2.77700970
O          18.42833330     3.82066870     1.22714540
H          17.96737290     3.81884340     0.38825150
H          18.93687440     4.63156650     1.21923380
O           5.69019130    11.90592480    24.22335820
H           5.20771690    12.17688470    25.00440410
H           5.22288890    11.13163090    23.90978050
O          13.70742130     1.01350640    19.92563630
H          13.25728510     1.09720800    20.76623340
H          13.06189630     0.60661070    19.34774020
O           8.19261070    17.05794330    21.11171720
H           8.86520860    16.60884860    20.59970280
H           7.41850950    16.50067710    21.03138350
O           5.40488340    12.52984910    14.90765670
H           5.28431890    11.61605360    14.64944080
H           5.78053950    12.94982620    14.13387780
O           8.07556820     2.52174520    21.62697600
H           8.07012370     1.61319590    21.92820550
H           8.94829460     2.64507630    21.25365260
O          14.26818850     5.64377360     4.87920810
H          13.79572960     5.71699290     4.04995920
H          13.75277420     6.16436620     5.49529550
O          20.51157950    21.64476780    21.35433390
H          20.38996510    21.23997120    20.49550820
H          21.27952580    22.20616720    21.24792670
O           2.23732090    16.62811850     5.56731030
H           1.47964000    16.06017300     5.42734580
H           2.32371620    17.11805530     4.74955180
O           5.84061530    18.73343280    21.19983480
H           6.60559650    18.68276410    21.77295680
H           5.95946790    18.01574130    20.57772450
O           5.01416870    18.92130470    12.40736010
H           4.88519480    18.29544640    13.12003040
H           4.88683030    18.40647890    11.61050990
O           7.90600590    20.29515460     1.50110720
H           7.72552300    19.43988040     1.89118700
H           8.26671310    20.81475640     2.21953320
O           5.28692440    24.16966250    13.45464900
H           5.73059650    24.82068630    12.91100030
H           5.95979500    23.51503180    13.64156060
O           3.20373250    22.69121360     5.51166340
H           3.29004570    22.85962100     4.57335620
H           4.02865120    22.99905200     5.88713170
O          11.61525820    16.55819700     0.06341290
H          11.96470170    17.13969420     0.73867920
H          10.78281310    16.95752140    -0.18918870
O          14.25792500    24.58374020    23.22945590
H          14.51557350    23.66244510    23.26209640
H          14.84048370    24.97238350    22.57691190
O           0.45405870     7.69467880    12.58951280
H          -0.02028990     7.70124010    13.42088600
H          -0.09862420     7.17876290    12.00248340
O           5.86301990    22.19425960    10.53495600
H           5.60071850    22.16187290     9.61496640
H           5.12727360    21.80504230    11.00762840
O           7.37750340    24.45153050    24.17827220
H           7.48227880    24.80337520    25.06227300
H           6.45169160    24.58543590    23.97536280
O           4.57555680    15.97002510    14.28852650
H           4.10293290    15.26419350    14.72972870
H           4.49120520    16.71963880    14.87776180
O          19.17875480    21.46465110    14.50808810
H          19.82149120    21.60742380    15.20287990
H          18.40765000    21.95653150    14.79037280
O          11.60729890    15.98137570     7.18501760
H          12.14211180    16.47292140     7.80838870
H          12.24186800    15.52081200     6.63598780
O          10.72555070     2.77980180    21.14135930
H          11.32527450     2.15514230    21.54923630
H          10.93000320     3.61618280    21.55956650
O           7.25766090     7.33396770    20.73299030
H           6.91212460     6.44131230    20.73111720
H           6.50632000     7.88210730    20.50658040
O           3.06480410    13.84801580    15.36819360
H           2.51917650    13.27928070    14.82499600
H           3.88581750    13.36649610    15.46972270
O          10.14965150     4.84822800    13.01306820
H          10.61499120     5.64877650    12.77055740
H           9.64510250     4.61872910    12.23268890
O           6.50614360     0.35797920     7.14696410
H           6.76964280     0.10343740     8.03127670
H           5.57102200     0.54843520     7.22117140
O           5.31488990     6.45928620    16.64489750
H           5.54616640     5.90774770    17.39225960
H           6.11560150     6.50241610    16.12218090
O          19.75105860    12.51372810    24.21489140
H          19.70168690    13.21410270    24.86548230
H          20.59045220    12.08665940    24.38595200
O          -0.01563020    21.35391430    16.24508090
H           0.76360230    21.31476970    16.79960250
H          -0.26976770    22.27671810    16.25390620
O          11.14627550     7.30901670     9.04164790
H          10.35679720     6.85744910     8.74324800
H          10.94105430     8.23900700     8.94555090
O           8.64817910    11.21444420     7.71117690
H           9.06442170    10.59724520     8.31287480
H           9.07001020    12.05301190     7.89850950
O           1.63079740    21.89385410     9.66261010
H           1.93312260    22.58202550    10.25527290
H           2.38502600    21.31241420     9.56617740
O           5.79832170     4.36802430     1.13806270
H           5.06987950     3.92575410     0.70217060
H           5.80148220     5.24933000     0.76453710
O          18.13459590     4.32475420    16.63801380
H          18.95123670     3.96474980    16.29199980
H          17.44759180     3.80920840    16.21555520
O          13.75957580     1.31781200    10.40424920
H          14.16659260     1.21859690     9.54359440
H          12.88067340     1.64749530    10.21697710
O          19.45601650     8.38202860     1.10826420
H          19.17166140     9.24292090     1.41525010
H          19.92855640     8.56164650     0.29544570
O          19.40685080    10.83165260     2.22892430
H          20.29201890    11.17432120     2.10527850
H          18.85547450    11.61119370     2.29625770
O           8.69347100    15.63620090    17.67849160
H           8.12407780    16.26799010    17.23932270
H           8.34950160    14.78191470    17.41751100
O           4.13737300    14.48180290    18.36717220
H           3.72057340    13.98788170    17.66109280
H           4.88466360    13.94325540    18.62747000
O           0.40184690    12.45144940     2.02255030
H          -0.03579900    13.30194760     1.98582260
H           1.32297990    12.64853950     1.85254660
O           1.29116920    24.48991390     3.24030280
H           1.67411330    23.61953740     3.13061500
H           0.89639000    24.46976280     4.11206820
O          16.60816190    23.97666930    14.65950390
H          16.24218370    23.71547510    13.81447790
H          16.47691730    23.21433260    15.22328570
O           5.19645500    22.99478530     1.43633950
H           5.16747950    23.47771450     0.61040330
H           5.92024040    23.39192960     1.92073790
O          11.42883010    15.59686570    17.03821950
H          10.51302620    15.87296580    17.07432170
H          11.40261750    14.65647410    17.21487810
O           9.50605110    23.24903490    26.54428480
H           8.82696060    23.82172970    26.90077780
H           9.06441400    22.75500110    25.85354800
O          10.01249410     5.43539570     4.23933270
H           9.90748880     5.61400460     3.30482480
H           9.54180050     4.61397310     4.38055420
O           9.03419590    26.39644810    12.81443600
H           9.59097000    25.85772130    13.37658020
H           9.54059120    27.19601630    12.67130760
O           4.37466050    24.41882130    25.72213360
H           3.83240220    24.90038870    26.34685900
H           3.80421920    24.28153800    24.96583940
O           1.29475590     2.00470110    12.44084360
H           2.06682680     1.47476670    12.63910390
H           1.20031740     2.58292440    13.19779300
O           0.26658920     1.75531050    22.76897050
H           0.27629570     2.40578890    23.47112080
H          -0.14265630     2.20618870    22.03041840
O          12.00858970    20.40990070    13.36509320
H          11.54717540    21.18068120    13.03459930
H          11.66283510    20.28439520    14.24879740
O           7.05103210     8.89259530    17.84712220
H           6.15194420     9.13284870    18.07106780
H           7.17371270     8.02933500    18.24204440
O           0.21043400     9.64281940     6.56023170
H          -0.02587220    10.49533180     6.92576360
H           0.08434200     9.74349120     5.61672830
O          16.47994230    25.59772680    21.68750950
H          16.66664310    26.15612220    22.44220920
H          16.85037040    26.07057380    20.94223790
O          10.89009190    10.21580410     8.99493600
H          10.72911360    11.09178070     9.34562400
H          11.65660000     9.90267850     9.47519400
O          18.98418240    17.46623610    21.88005070
H          19.64132500    16.78051570    21.99914170
H          18.18759540    17.10465620    22.26856230
O           0.55257610     0.87346550     4.00511460
H           0.92600260     1.55373430     4.56548830
H           0.67994310     0.06186910     4.49635840
O           8.87564950    11.13211730    18.03590770
H           8.92204190    11.30878160    18.97551920
H           8.56430150    10.22888090    17.97710990
O          11.95292190    25.45916560    23.76597600
H          12.77695560    24.97253230    23.74629400
H          11.61864190    25.32834240    24.65331650
O          13.28849890     5.92965650    19.23345950
H          13.51781560     5.27266550    18.57618520
H          14.03022100     6.53469710    19.23626330
O          19.64454460    21.91715620     2.70924230
H          20.24768070    21.32214550     2.26379510
H          19.93470380    21.91370770     3.62139770
O           2.04953100     5.67738200    14.91871930
H           2.48664380     6.23196740    14.27250000
H           2.06900600     6.19017170    15.72674080
O          10.18459990    21.84531400     5.25884530
H          10.81879900    21.47039790     5.86995890
H           9.50684070    22.22349740     5.81907030
O          12.55512140     9.32543750     3.45344450
H          11.76512050     8.86820320     3.16523190
H          12.22976590    10.10226730     3.90831800
O           5.59693620    16.02799420    20.51104930
H           5.38812450    16.43985750    19.67259980
H           5.52909760    15.08865450    20.33995630
O           9.75541970     5.65815110     1.37574510
H           9.25399110     6.01306010     0.64168670
H          10.55228710     5.31022880     0.97551470
O          20.84389500    15.39838890    14.73403550
H          20.88682370    14.50595000    14.39060590
H          20.15487860    15.81981950    14.22033600
O           5.60746960    12.69836140    20.25004390
H           4.80751230    12.83334060    20.75806050
H           5.39694880    11.97511960    19.65942190
O          11.79066940    24.66894150     6.81093030
H          11.66416070    23.73477170     6.97692490
H          11.05582520    25.09267810     7.25442080
O           9.53480430     9.12276550    20.07461550
H           9.03022290     8.32652570    20.24084470
H          10.44826410     8.84943580    20.15895460
O          18.09221650    14.58787060    17.69770240
H          18.14390180    14.73065660    18.64278030
H          18.26562690    15.44821830    17.31565090
O          10.43137260    16.12462810     4.56030890
H          10.74167160    16.24315260     5.45802690
H          10.92162610    16.76945880     4.05033250
O          11.13036250    12.57923980    25.32304950
H          10.33163740    12.27835750    24.88975910
H          11.71199510    12.83046050    24.60553550
O           5.45977500    25.62906650    17.94108200
H           5.33493420    24.69542880    17.77088360
H           6.01301480    25.65835190    18.72165870
O          13.21122070    19.24457170    19.73187070
H          13.59522530    18.43970680    19.38407140
H          13.73031520    19.43997000    20.51199340
O          19.89908410     7.39318130    14.16063880
H          19.90705870     8.08846860    14.81847190
H          19.03161240     6.99674560    14.24165440
O          18.58035660     1.41872360    20.19642640
H          18.18329810     2.25770620    19.96257970
H          18.42233850     1.33272080    21.13656810
O           9.52882100     6.10392140    22.02279850
H           9.02420330     5.78516720    21.27447320
H          10.44175240     6.03185030    21.74424740
O          17.02674100     8.22549060    25.78321460
H          16.14390750     8.59519960    25.79544830
H          17.60328100     8.98489950    25.69876480
O          17.75652890     1.62251420    23.03923800
H          17.61018180     1.14874600    23.85799220
H          18.02758600     2.49830960    23.31445120
O           4.92425920     8.24433800     2.68380860
H           4.24445440     7.58078430     2.80125570
H           4.91434380     8.43394470     1.74562800
O          11.88218590     3.34096380    17.18782620
H          11.95797440     2.40670440    16.99379730
H          12.71109290     3.71550890    16.88972850
O          14.38657570    14.01262570    23.03444100
H          13.51869870    13.99950310    22.63089370
H          14.30456070    14.63299270    23.75876620
O          13.48143670    16.39914700    24.56980510
H          13.08910470    16.23646740    25.42761800
H          13.62994670    17.34454350    24.54975510
O          19.73012920    25.70120810     1.79013670
H          20.12743380    25.69118690     2.66092990
H          20.31324580    25.16322520     1.25461710
O          19.04922290    24.15033720    10.74075130
H          18.37309650    23.47636220    10.67118170
H          19.33556940    24.10905650    11.65318390
O          16.79910660    22.29932020    10.15127090
H          16.26528360    21.61750600    10.55918410
H          17.09015080    21.91340830     9.32507610
O          16.77865980    23.21737480    23.72496990
H          16.88685230    24.16006850    23.85088920
H          17.13410380    22.82674980    24.52328300
O           1.32146930    11.65610410    14.13603310
H           1.46045400    11.11282250    13.36030010
H           0.46275810    12.05578140    13.99781040
O           8.95009140     3.98840090    10.84598920
H           8.93979930     4.54592560    10.06798460
H           9.41776750     3.20025780    10.56968980
O          18.20718190     9.80250260     5.04163980
H          18.95410350     9.22058490     4.90124130
H          17.63314250     9.64028070     4.29304550
O          14.93638990     9.17313670    21.21408080
H          15.53316590     8.75781350    21.83665470
H          15.15611740     8.77692130    20.37089350
O          19.58507920    16.61778260     7.33973260
H          19.47072220    17.26170160     8.03867530
H          19.09679220    15.85064410     7.63857700
O           4.02610210    15.89014720     7.82995180
H           3.19355390    16.12735370     7.42150400
H           4.69169140    16.24570470     7.24105260
O          15.80618290    14.69748590     7.79155780
H          15.27073000    13.92299560     7.61925360
H          16.70790480    14.39236930     7.69139050
O          15.30486490    22.65206530     5.10927580
H          15.35475350    21.69627190     5.09513710
H          16.07956890    22.93951230     4.62612060
O          13.10935880     1.58660650     3.89055510
H          12.37160020     2.02458520     3.46615170
H          12.84537410     0.66794530     3.94159940
O          16.54771420     5.48167280    20.73207860
H          16.19863700     4.59348920    20.65786170
H          17.09410290     5.45940730    21.51769640
O          18.48321530     9.94607640    23.56832890
H          19.35115050    10.33176710    23.68734170
H          18.01729970    10.57141210    23.01325230
O          15.98008820    25.38035390    11.41722300
H          16.78934290    25.74136920    11.77916910
H          16.25544550    24.58484080    10.96162320
O          12.95144180     9.77951720    10.61669730
H          13.83049870    10.04991820    10.35141750
H          13.08616160     8.95916940    11.09115700
O           9.74324890    18.00475880     7.43152620
H          10.25350860    17.23656650     7.17511180
H           9.93587020    18.12057500     8.36196520
O           2.71137050    10.49822330    16.43172450
H           2.52039430    10.67950530    15.51145460
H           2.02784160     9.88501450    16.70189860
O           9.44656660    11.06594370     2.55406120
H           9.98923590    10.40026000     2.97668220
H           9.73100760    11.89136410     2.94649430
O           2.69230560     9.20846650     6.96064470
H           2.60463710     8.74031450     7.79093360
H           1.79196740     9.39587970     6.69512940
O           9.28022100    13.95151230    14.33394150
H           8.85396480    14.79916480    14.20736980
H           8.88998510    13.60460000    15.13618850
O          14.68593690     2.00798650     1.27124580
H          15.53037260     2.08759450     1.71489360
H          14.03833100     2.11451390     1.96801670
O           7.24542050    26.39826770    16.09778790
H           6.82097430    26.94591520    15.43736550
H           6.55200770    26.20191380    16.72775460
O           8.08901020     4.46772430    17.09165380
H           8.82520960     4.76423310    17.62674710
H           8.03899100     5.10479690    16.37900350
O          10.40503600     0.51926650    19.71827130
H          11.06233500    -0.02417710    20.15284920
H          10.42194080     1.34647750    20.19958880
O           7.50598050    14.84857850    26.61854360
H           8.01684950    14.10615830    26.94112400
H           7.01406960    14.49655820    25.87669560
O          12.07651620     9.01791380    26.20973780
H          11.16859530     9.04026990    26.51207920
H          12.13329980     8.22214030    25.68082050
O          18.39576150    13.84295940     8.13527770
H          18.70399280    13.13463690     7.57003070
H          18.62627410    13.56062600     9.02036760
O           3.01740260     4.07041500    18.73943900
H           2.69682880     3.36515860    18.17723080
H           2.38535790     4.11063430    19.45716670
O          18.48078920     5.11525010    10.16235350
H          17.60031320     5.48100140    10.07738020
H          18.36260220     4.32708410    10.69250300
O          17.33766940    14.39687060    11.78824900
H          16.47747040    14.71486570    11.51408000
H          17.24954220    13.44376280    11.79547880
O           7.24673370     3.50862260     6.97683000
H           6.49367620     3.53318740     7.56719730
H           7.03330610     2.82215550     6.34481430
O           0.72756490     8.22774220    16.78073120
H           0.65459730     7.77765990    15.93910690
H           1.16248700     7.59590670    17.35331920
O          16.85151480     8.98242380     2.89299940
H          16.92361260     9.85607240     2.50858860
H          16.80132290     8.39302540     2.14045620
O           4.66269870     3.53380160     8.28060530
H           4.24804970     4.34225420     7.97943930
H           4.40281110     2.87647960     7.63514520
O           5.95896240     6.46292730    13.19395070
H           5.12451840     6.79633860    12.86414340
H           5.97142120     5.54347940    12.92807010
O          18.57163050     0.45748850    10.20604900
H          18.62386320    -0.48872330    10.34090520
H          17.96066860     0.56209990     9.47665600
O          20.28010940     5.74494790     1.40706920
H          20.32227710     5.59297040     2.35118580
H          20.02811620     6.66459610     1.32353230
O           3.97160630    21.27330400    12.58201690
H           4.25537780    21.56073760    13.44982340
H           4.33264450    20.39139750    12.49187760
O           9.08612160    17.69075970    15.30465320
H           9.92708110    17.24225620    15.39332960
H           8.49546720    17.02483180    14.95265770
O          19.25605010     4.65525010    20.18489070
H          18.61465260     5.23795270    19.77832220
H          19.03508570     4.66834970    21.11614610
O          14.45887950    24.29749680     7.08399150
H          14.73214340    23.74815750     6.34929080
H          13.51391980    24.39814760     6.96931220
O           1.86111740     4.24183990     2.46373010
H           2.25798320     4.57025190     1.65696200
H           0.97776900     3.97817370     2.20603370
O          12.02081010     6.87465330    24.57991980
H          12.39808370     6.81495050    23.70223430
H          11.98681740     5.96906610    24.88812070
O           4.45051480     4.10791440    11.94677830
H           5.31066890     3.68814990    11.93393420
H           3.87204170     3.48204370    11.51101780
O           3.82614800     4.06729270    22.97085000
H           2.96286200     4.32187990    23.29666140
H           3.67504980     3.24041510    22.51294710
O           4.00350090    14.79452800     1.91100230
H           4.60932160    15.42961980     1.52907220
H           3.21984770    14.85235880     1.36439870
O          14.67679600    19.92367940     3.79005550
H          15.63308910    19.95820620     3.81336140
H          14.42948910    20.57580380     3.13446120
O          -0.08593510    11.54960350     4.65281010
H          -0.11953880    11.44053550     3.70243790
H           0.82637030    11.77401450     4.83603050
O          11.71110250    13.12939170    22.45769120
H          11.04347520    12.65316680    21.96401600
H          11.22843840    13.82572080    22.90310670
O          17.98771670     2.87334590    11.57679370
H          18.15482140     2.08126400    11.06599620
H          17.04889490     2.84567310    11.76140310
O          20.25983810     6.23159360    17.93308260
H          19.73572350     5.54811240    17.51548190
H          20.47601700     5.87486310    18.79461670
O          16.11364750     0.22455070    18.98902130
H          15.99604230     0.07606360    18.05075070
H          15.23748210     0.43909260    19.30923460
O           7.51273920     8.94404410    14.88241670
H           7.46011350     9.20627120    15.80149270
H           7.71475890     8.00885390    14.91136170
O          20.43232730    19.20276450    13.56820960
H          19.74042700    19.82760430    13.78518680
H          21.02416800    19.23014640    14.32001300
O           9.58181290    22.59068870    23.78780560
H           9.74713420    22.45668030    22.85456280
H           8.63418870    22.71146580    23.84825330
O          19.92428020     4.54023410    14.07982440
H          19.04271320     4.38738010    13.73967080
H          20.11500170     5.44984770    13.85078140
O          16.07942770    20.00835420    24.59394070
H          16.49088860    19.53107260    25.31445120
H          16.81318470    20.35581970    24.08688930
O           8.78780650    11.79621790    24.02609250
H           8.90610030    11.04955200    23.43895530
H           7.84229660    11.84180550    24.16809270
O           0.42297460    13.12267400    17.18980410
H           0.86732110    12.27714820    17.12758060
H          -0.50796170    12.90927220    17.12616540
O          20.19027710    13.27455810    13.16829970
H          20.23022840    13.87574480    12.42451760
H          19.40870090    12.74593450    13.00727840
O          15.07120040     3.32352590    12.07516380
H          14.59817310     2.76561310    11.45774170
H          14.65809920     3.14887860    12.92078690
O           0.88417440    24.26846890    17.32523350
H           0.79026420    24.16484830    18.27216340
H           1.46227360    25.02452470    17.22319030
O          15.52067570    11.21076680     9.97720530
H          16.33042530    10.97676940    10.43083950
H          15.78001790    11.31269170     9.06146240
O          15.20628170     8.80348590     5.20018960
H          15.00795750     9.22291470     4.36294510
H          15.61120800     7.96992540     4.96051600
O           0.73393160     3.48076580    14.44306850
H          -0.14221330     3.85378120    14.34580230
H           1.31944560     4.23788020    14.42950730
O           0.43714910     6.64746810    26.04169650
H           0.54527380     7.56623600    26.28747180
H          -0.14804790     6.28838870    26.70865820
O          21.02196120    23.52165790     8.42877480
H          21.53522300    22.71373940     8.43642810
H          20.93863870    23.76123430     9.35175510
O          20.02141380    21.17322920     5.23113200
H          19.95105930    21.58157730     6.09399560
H          20.81482120    20.64021110     5.28237440
O          20.27984810    18.94263840    25.40144540
H          20.70546720    18.93816180    24.54408840
H          19.37388610    19.19111630    25.21780200
O           6.20651250    11.79719450     0.95256270
H           5.40785880    11.77451610     1.47969640
H           6.67771340    11.00075820     1.19728860
O          14.33644960    21.73032760    22.72459410
H          14.74371910    21.53661350    23.56889150
H          14.57608320    20.98972320    22.16753580
O          13.46901420    23.93178750    14.86638930
H          13.35517220    23.50392720    15.71503930
H          12.71991250    23.63830570    14.34778980
O          15.32003690    16.51304440     1.24269960
H          14.43998340    16.51374050     1.61917960
H          15.85681060    16.05483060     1.88934080
O          17.82304000    14.16381360     0.51917960
H          17.19550510    13.56913090     0.10834620
H          18.06916240    14.77144340    -0.17827300
O          18.39035220     5.86251780     3.92838810
H          17.99922560     5.90720990     3.05589010
H          17.97171590     6.57245020     4.41518550
O          20.06362150    15.07141590    25.12098690
H          20.97698210    15.17471410    25.38807490
H          19.64823530    15.89913850    25.36298370
O          16.64684490     6.20599030     1.85999680
H          15.76443770     6.42504840     2.15933560
H          16.56186490     6.11383010     0.91104120
O           8.15201090    23.45472530    20.08406450
H           9.06239990    23.37817760    20.36965750
H           7.81435680    22.55969050    20.11775780
O           9.35045340    26.10230830     7.64193150
H           9.42502310    26.05393410     8.59499550
H           8.82642650    26.88724140     7.48222260
O           7.13234230     3.75576640    12.85763740
H           7.75802900     3.42067190    13.49986740
H           7.63789180     3.83318380    12.04852870
O          13.72648530    14.58508400     2.69738220
H          14.18702790    13.74805740     2.75671340
H          12.97727680    14.40647220     2.12903550
O          12.72029210    12.21152970    11.33900830
H          12.76441480    11.30804540    11.02595810
H          12.97264390    12.73996070    10.58183480
O          19.32558060    26.42327120    18.11251070
H          18.89685250    26.89702030    18.82524300
H          19.44608120    25.53668980    18.45263670
O          21.22599600     2.86235670    19.26984210
H          20.40069580     2.37929490    19.31185720
H          21.19653510     3.45277070    20.02268600
O          16.74397660     2.27455090     2.96677110
H          17.31075860     2.96122310     2.61538670
H          16.75365260     2.41702990     3.91325830
O          15.09285450    11.35400300    13.02589130
H          14.27299020    11.84455200    12.96743870
H          15.35179710    11.21094990    12.11555290
O          20.96979900    15.03365990     2.02942710
H          20.15415380    14.53271960     2.03309800
H          21.19607730    15.12966630     2.95452830
O           0.58756930     4.98703340    21.27935980
H           0.16782760     5.81535100    21.51160810
H           0.75922500     4.56167750    22.11950110
O          17.25346570    20.23554990     4.44739250
H          17.78939820    20.96649170     4.75518130
H          17.69809340    19.45585060     4.77996870
O          10.61226180    22.97583390    12.57349400
H          10.61633210    23.54067610    13.34626100
H           9.70012950    22.69996830    12.48326300
O          16.80950550     7.93118140    22.90679360
H          17.35099030     8.55513860    23.39022060
H          17.30678940     7.11364510    22.93073650
O           6.45317550     1.91733600     4.75956110
H           5.83952050     1.86434890     4.02686020
H           6.41522790     1.05193000     5.16682530
O           9.20014670     7.28117420     6.21615410
H           9.75619600     6.78465600     5.61572890
H           8.30829910     7.01613570     5.99122190
O          16.16541480    20.83158110    13.93911650
H          15.70583720    20.27447510    14.56733130
H          17.08165170    20.56276700    14.00607490
O          11.68083860     6.82654810    11.79406550
H          11.40852830     6.68297720    10.88771820
H          12.58299350     7.13923790    11.72643280
O          14.54019260     7.87039330    11.99044700
H          14.84708790     8.22912980    12.82312680
H          15.30433940     7.42387150    11.62585260
O          17.58495330    15.87353420     2.67923970
H          17.65053560    15.54337600     1.78317830
H          18.08724210    16.68832400     2.67164280
O          15.64002230     5.66773370    10.44995120
H          15.11306000     5.60131120     9.65362740
H          15.31927870     4.96014450    11.00912190
O           5.25541970    23.09285350     7.40830140
H           6.11781310    23.12260250     6.99402480
H           5.28788470    23.77568440     8.07831670
O          17.58885380    26.22138600    13.46186920
H          17.19594760    25.82474520    14.23938660
H          18.19190410    26.87950130    13.80747990
O          13.30619340    15.23168850     5.31017490
H          13.54922770    14.78173540     4.50103380
H          14.02853870    15.83821390     5.47319700
O           1.85877420    18.55365750     1.49084420
H           1.25021360    19.28747370     1.40482140
H           2.62311840    18.81490710     0.97727160
O           9.89517120    14.88012790    19.99757770
H           9.39301970    14.91907980    19.18360140
H           9.56732850    14.09952260    20.44412800
O           6.98421760     8.18783760    23.51832200
H           7.78781320     8.67551140    23.69898990
H           7.20598700     7.62792250    22.77431680
O           6.81993480     6.20208310     5.44974800
H           6.55931380     5.73033570     4.65869620
H           6.05139450     6.15862890     6.01868440
O          10.99164870    22.64033130    16.47831150
H          10.75475980    21.81089210    16.06340600
H          11.37989520    22.38694570    17.31574440
O           5.34844400     4.54693560     3.90824510
H           5.53469560     4.18914270     3.04018640
H           5.74795340     3.92364070     4.51497980
O           6.06986140    21.19010350    20.52430150
H           6.03599930    20.29065130    20.84998510
H           5.88090040    21.73000530    21.29178430
O          17.69336320    23.53439900     3.40908810
H          18.32298090    22.86049650     3.15283250
H          17.19562150    23.71296120     2.61121560
O          19.68684770    12.81966880    20.15601730
H          19.75540540    13.75283530    20.35784340
H          19.37484740    12.42118930    20.96848300
O          12.22679810    18.48429110     4.75463200
H          11.72446160    18.58116720     5.56364630
H          12.83603760    19.22254370     4.76113890
O          14.51529410    20.49467470    11.50932500
H          13.70008090    20.82010650    11.89110180
H          15.10818860    20.40074160    12.25490190
O           1.97274300     3.26541950     5.05138640
H           1.62616060     3.63408230     4.23885970
H           1.68322180     3.87248090     5.73247770
O           2.72287650    13.32960410    21.19000630
H           2.81623270    14.07380010    21.78472520
H           2.03876400    13.59763240    20.57650570
O          17.30096440     5.39342640    25.74674800
H          17.90296550     5.17624520    25.03494830
H          17.29006200     6.35033560    25.76764680
O           9.62384700     9.84038260     0.07972840
H           9.55530830    10.65401360    -0.41981200
H           9.55903720    10.11476610     0.99446610
O           1.24679090     4.33669420    23.90199090
H           1.21612170     5.23693130    24.22582050
H           0.55509670     3.88465830    24.38516240
