701
Conf 1. Box X: 20.508 0.000 0.000 Y: 0.000 18.541 0.000 Z: 0.000 0.000 18.127
H          11.14919380     8.15175250    11.24859140
N          11.41083340     8.92175290    10.63458350
H          11.81622790     8.55443480     9.77487850
C          10.32702730     9.92849060    10.48059840
H          10.76021670    10.86356260    10.10486220
C           9.34477420     9.53153990     9.38969800
H           8.81117530     8.68600460     9.83913900
H           8.64232250    10.37307740     9.38392930
C           9.92686080     9.12624260     8.02702520
N          10.41404340     7.85591890     7.72148940
H          10.43821530     7.08902980     8.37752720
C          10.68972780     7.76574560     6.35724400
H          11.10462280     6.89947460     5.85907840
N          10.49447350     9.08673100     5.84692570
H          10.73154450     9.38158510     4.91100410
C           9.88661380     9.86764530     6.85828730
H           9.61864660    10.91244980     6.77538250
C           9.56704330    10.27230550    11.84690950
O           8.42857460    10.70445540    11.91141990
O          10.48198990    10.49942490    12.71788410
H          11.29495050    10.21336080    12.26730920
O          18.50054360     2.30080490     4.45035700
H          19.12213330     2.95212770     4.12533860
H          19.02321620     1.73213610     5.01574370
O          16.21065900     2.85352090    12.21767230
H          16.78110890     3.61276130    12.33756070
H          16.44045450     2.51558400    11.35209560
O           2.37750530     4.06351420    14.90670390
H           1.61422440     4.09165290    14.32977870
H           2.26393940     4.81321140    15.49090390
O          17.45677190     5.97652440     4.70234200
H          18.09231190     5.46961690     5.20767970
H          16.77543830     5.34490490     4.47196290
O           8.94691850     2.62369780     4.30936910
H           9.72402190     2.08353640     4.16595130
H           9.28416440     3.51755310     4.36869910
O          17.12239650    13.28381920    16.79028700
H          17.29894640    12.98539540    15.89809610
H          16.59230610    14.07294460    16.67840580
O           1.57409790    11.14826580     9.75155830
H           1.75198700    11.63128950    10.55857560
H           1.90861560    11.71362400     9.05535410
O          11.79961110     0.99257410     6.15765670
H          12.34003930     0.22673930     6.35173560
H          11.82486340     1.06801740     5.20376870
O           4.81059360     3.61596270    17.02557180
H           4.12443020     4.14710620    16.62146950
H           4.36265420     2.81691650    17.30325320
O           0.31167600     6.56071760     2.45765280
H           1.14619920     7.00068470     2.61961630
H          -0.32390540     7.27257200     2.38327960
O           0.53739660     4.55631920    12.64716430
H          -0.16212170     4.19223120    12.10462760
H           0.79601110     5.36034300    12.19672390
O           2.59826520    15.80727770    14.79661370
H           3.48405220    16.16987610    14.78502660
H           2.28560730    15.91006760    13.89777570
O          19.66834830     2.33314110     8.00078680
H          18.95855520     2.49260950     8.62287520
H          20.35243030     1.91150030     8.52086640
O          18.55612560     6.45386080     9.71890350
H          19.06115910     5.67195940     9.94207190
H          18.48578640     6.93668170    10.54241280
O           2.45735880     0.85815560    15.07398610
H           2.25960490     1.79458750    15.08887290
H           3.33102940     0.80398880    14.68669130
O           0.82795950    14.98146820     8.44555280
H           0.52203980    15.57345200     9.13272190
H           0.04421250    14.50310330     8.17510990
O           1.22930770     8.22208400    10.89664650
H           1.25558760     7.83310790    11.77085400
H           1.03945680     9.14734940    11.05179790
O           7.11303520    15.91371350     6.97198250
H           7.60420040    16.62999150     6.56957200
H           7.41636560    15.89558600     7.87966780
O           9.60145470     2.80774880     0.36212950
H           9.97463800     2.78729680     1.24334940
H           8.96588900     2.09204650     0.35450830
O          18.83229830     0.59550800     2.04312320
H          18.65923880     1.42971740     2.47944660
H          19.77388950     0.46028840     2.14967750
O           1.27489730     2.85389450     6.21141430
H           0.58419510     2.47681120     6.75636430
H           1.98761610     3.03983120     6.82271720
O           8.76741500    18.06713490     6.18782950
H           8.10787680    18.40291210     5.58079150
H           9.60305020    18.24654960     5.75683550
O           7.30519010     7.07694910     5.86650990
H           6.85532090     7.62777380     6.50716730
H           7.02163510     7.41645100     5.01764770
O           8.73391530    15.33866210     9.47030450
H           8.32114510    14.55102440     9.82453440
H           9.67018800    15.20569900     9.61845020
O           3.35561420    18.56629180     8.38678740
H           4.22996380    18.93738750     8.26832490
H           3.47589970    17.87184910     9.03448390
O           4.09109120    13.15462400     0.42386610
H           4.51962760    13.95648100     0.72322090
H           3.51743320    13.44067570    -0.28699450
O           9.06901450    17.49102400    17.26890950
H           8.75225930    16.94556430    17.98888970
H           9.95842080    17.73414610    17.52596860
O           4.72843790    11.17698380    16.34462170
H           5.43557210    11.70544240    16.71465490
H           5.16857480    10.40839580    15.98159980
O           6.30862240     2.96112390     3.05799370
H           7.08424850     2.49209190     3.36563750
H           5.69720410     2.92118740     3.79338770
O          10.80128190     6.05052190     9.69826890
H          10.63618760     6.36637450    10.58664610
H          11.58897210     5.51252600     9.77786250
O          16.78511240    18.73476600     8.92319680
H          16.90855600    18.37534140     8.04467110
H          16.18919560    18.12040710     9.35177230
O          16.23572160    11.56636710     3.98697210
H          16.82796480    11.35431190     4.70843890
H          16.76235010    11.43553070     3.19844410
O           6.59776970     6.36153550     1.83267080
H           6.69150350     6.50394960     0.89077690
H           7.08680060     5.55651280     2.00302200
O           3.68941550     9.08042050     9.54490570
H           3.16325620     9.14982990     8.74830630
H           3.04704810     9.03745650    10.25324920
O           5.56009720     5.08551880     4.70276830
H           6.37933540     5.57390020     4.78378580
H           5.62301250     4.65171150     3.85183640
O          16.72528270    15.99878030    16.09800150
H          15.96617980    16.23670390    15.56566240
H          17.17284390    16.82895470    16.26149560
O           9.74633220    18.00525670    14.70944790
H           9.68488030    17.80601310    15.64366340
H          10.55318260    18.51336480    14.62548450
O           2.51543710    13.02337360     8.16572760
H           1.86049320    13.68605900     8.38510890
H           3.23532010    13.51837160     7.77460430
O           6.70758440     8.77560520    17.80648040
H           6.11579230     8.82965560    17.05608750
H           6.49605850     9.54561420    18.33428380
O          10.16175750     5.91916040     3.55476310
H          10.14864060     6.87483070     3.50228240
H          10.26979160     5.63097480     2.64839150
O           3.89179560    17.15403370    18.00590520
H           4.82080980    17.21818350    17.78443340
H           3.46985530    16.87971310    17.19169040
O           5.78989220     1.36667380     8.34541610
H           6.38693810     2.03154130     8.00231360
H           6.09046550     1.21427290     9.24132920
O          16.94819640     8.39021490     3.82389810
H          17.20423130     9.04561230     4.47284460
H          17.21216010     7.55503940     4.20995090
O          12.89344980     5.43159060     7.04060890
H          12.16587260     4.87760640     7.32339140
H          13.19506930     5.85859060     7.84243730
O          17.83091740     0.04120770    15.78023720
H          17.10710910     0.38380570    15.25587080
H          18.49881740    -0.19954170    15.13822170
O          14.58276080    11.32080940     1.03704200
H          14.73763560    10.51878260     1.53603970
H          14.44712540    11.99482540     1.70302760
O           4.95997000    15.19554620     2.28103490
H           5.68607710    14.69400980     2.65179280
H           5.32234530    16.06939320     2.13506960
O           7.17464160     6.34540750    12.66122530
H           6.78560260     6.71202330    11.86720180
H           7.41120720     5.44968940    12.42048070
O           1.56028890    11.83794310     1.32142720
H           2.39639430    11.50537780     0.99499160
H           1.65703580    12.79003430     1.30157200
O          15.16504760     6.22923610    11.48978520
H          14.88397120     6.72859670    12.25650980
H          16.05444910     5.94571920    11.70147320
O           0.58891670     4.84278920    17.58991620
H           0.41934010     5.09267380    18.49822810
H           0.26542320     3.94430280    17.52429960
O           0.32035540     9.40213200     0.45062910
H           1.23123980     9.11910150     0.37053240
H           0.37720410    10.31873800     0.72050600
O           8.14242650    12.62576870     1.98477760
H           8.66048910    13.10029030     2.63490990
H           8.76025580    12.01166920     1.58804050
O          13.16403870     4.35348220    10.72334100
H          13.87138750     4.98498390    10.85408880
H          12.71976380     4.31273890    11.57021240
O           3.01195960     1.76051840    -0.07623800
H           3.43693920     1.08464370     0.45179540
H           2.11805110     1.44124540    -0.19962940
O           3.96040680    18.59520150     2.18028470
H           3.85996910    18.16583630     1.33070270
H           4.62543150    18.07691960     2.63344790
O           1.97127820    13.90533070    16.76697540
H           1.27861260    14.34585000    17.25930600
H           2.26940630    14.55972770    16.13521960
O           8.80177020     9.25494580    16.06806180
H           8.18768020     9.06014350    16.77600100
H           8.84572220     8.44519710    15.55952840
O           5.67514660    11.41554160    13.05722430
H           5.40060620    12.32933710    12.98082260
H           6.58174230    11.46240710    13.36073780
O           5.01896290     4.03103920    13.11862280
H           4.57541940     4.79619260    12.75250630
H           4.56226210     3.86086510    13.94245340
O          14.45675180     9.16599660     2.78332300
H          15.17978190     8.85381890     3.32738760
H          14.04706670     8.36825940     2.44865350
O           2.88074450    14.19613650    11.06598950
H           3.19840620    14.04898260    10.17510800
H           3.01481150    13.35853960    11.50948720
O           2.05082130     3.14111330     2.34118680
H           2.27308700     3.96213460     2.78022410
H           2.70579240     3.05497740     1.64849270
O          11.64672570    14.82437800     0.92228510
H          12.49648570    15.21484850     0.71814470
H          11.47837070    15.07806020     1.82977310
O          14.38507560     1.99018070     2.14597200
H          14.48267650     2.84998370     2.55517220
H          13.46684460     1.76016740     2.28802130
O          18.57719610    13.26593110    13.57589820
H          19.39000130    13.45315650    13.10629560
H          18.84414100    12.70065590    14.30076790
O          17.15682220    10.41967200    16.82135580
H          17.48218920    10.00757690    17.62169650
H          16.78122140    11.24969770    17.11497690
O          14.42681980    13.37550830    11.80487440
H          14.26594830    13.97673510    11.07763390
H          13.56774810    13.25300790    12.20888140
O           3.79043960     9.56255720     3.10416100
H           3.52777860    10.43266110     3.40442730
H           3.55399660     9.54774000     2.17674140
O           0.85848330     0.36265890     2.57512930
H           0.83721370    -0.04063660     3.44296100
O           5.05793950     8.69358440    12.74463840
H           5.23975180     9.54718400    13.13775920
H           5.78230090     8.55134870    12.13529400
O          14.30500510    10.31420330     5.87417980
H          15.06806090    10.54987720     5.34650950
H          14.35983560     9.36270900     5.96297840
O          11.87988000    13.42732520    13.36307240
H          11.39557840    13.52673910    14.18270780
H          11.99376870    12.48196510    13.26531890
O           9.72296810    10.28247070     0.85115340
H          10.65529250    10.46684550     0.73709800
H           9.33255100    10.48772050     0.00163650
O          -0.18881920     9.48873140     3.45113780
H          -0.11308840     8.78752710     4.09829280
H           0.59733460    10.01940920     3.57988100
O           0.19162220     7.56249620     5.23492380
H           0.84491100     7.69963260     5.92095520
H          -0.29911140     6.79242710     5.52198740
O          17.30686760     4.38265710    16.25731470
H          17.37574200     5.07913400    16.91031270
H          17.88464160     4.66215280    15.54718020
O           6.75357440     5.81343750    17.44628720
H           6.22670840     5.02988580    17.28915210
H           6.39094450     6.46928360    16.85080720
O          15.45304580    18.48776630     3.68918630
H          15.10553460    19.13622090     3.07683490
H          16.02806660    17.93886950     3.15599470
O           7.88269330    11.73605920    15.36180500
H           8.29917530    11.02720360    15.85200690
H           8.49634270    11.93003750    14.65325740
O          16.45860480    17.87127880     6.29281810
H          16.72541620    17.03033830     5.92151780
H          16.32324410    18.43669700     5.53241590
O           1.42913510    17.48119930    11.97155380
H           1.13423560    18.30875970    12.35156630
H           2.36942390    17.60056880    11.83798790
O           5.75849680    14.76776410    12.54524900
H           6.39200690    14.35526850    11.95809940
H           6.15737440    15.60651210    12.77683070
O          14.30344680    16.13580890     0.44193610
H          14.92401410    16.82326890     0.68385700
H          14.68829820    15.33199690     0.79123000
O          10.57211300    13.50305460    15.97527890
H          10.54258730    12.54637340    15.98630330
H          10.68193150    13.74988940    16.89356230
O           4.19138240     3.28237370    10.40642830
H           5.08582590     3.37316080    10.07785420
H           4.23141530     3.61193920    11.30421260
O           7.58037190     3.12746310     6.95618100
H           8.13776400     3.86813860     6.71754880
H           7.26380440     2.78663660     6.11960840
O          17.15736200     2.88724020     9.51997090
H          16.69958500     3.49658940     8.94086460
H          16.82636640     2.02462290     9.26984210
O          11.77792260     3.77184510    12.93282220
H          12.49249270     3.64969230    13.55788230
H          11.68901730     2.92192770    12.50158210
O          11.39077760    18.24048230     0.12301970
H          11.40931800    18.79542730     0.90271480
H          12.28921130    18.26045610    -0.20659920
O          12.08851910     6.22634220    15.10234070
H          11.52667240     6.92336320    15.44104770
H          11.97235110     5.50391010    15.71945380
O           5.17352770     8.51708600    15.57661630
H           5.50465200     8.18555930    14.74194530
H           4.72074320     7.77023030    15.96831130
O          10.97025110     3.20554450     7.65450530
H          10.17298600     3.37415790     7.15234040
H          11.35560510     2.43356870     7.24003170
O          17.87263680     8.12866970    11.97982120
H          17.81504440     8.44411370    12.88171290
H          18.31594850     8.83335590    11.50746060
O           5.43016960    11.62311460     9.30646420
H           5.10551790    11.76505950     8.41726020
H           4.87315990    10.92790220     9.65668010
O           9.23670960    14.32585140     3.87473130
H          10.16977500    14.11596200     3.83512760
H           9.19227220    15.25951290     3.66849590
O           6.23089220     8.29287430     3.83108350
H           6.57663440     7.80030920     3.08672210
H           5.68395190     8.97173400     3.43581560
O          12.59255120     0.28613030    15.74509430
H          12.90431400     0.19046920    14.84515950
H          13.37234590     0.52922950    16.24414830
O          10.47033690     8.55572030     3.09728980
H           9.98731900     9.07994840     2.45845390
H          11.07784650     8.03632260     2.57061270
O           0.33565130     0.43021150     5.32543660
H           0.86494270     1.20167290     5.52774860
H           0.63186350    -0.23353060     5.94828130
O          10.40596390     2.49181840    15.78826900
H          11.21918490     2.04859420    16.03004650
H          10.08417420     2.86604620    16.60841370
O          17.27499390     6.48552610    -0.28756960
H          17.03697780     5.86030050     0.39702780
H          17.82856180     7.12780480     0.15658370
O           8.57623480     6.82031200    14.80402180
H           7.96038060     6.70949550    14.07967660
H           8.82686330     5.92819930    15.04392240
O          11.86907010    13.45879270     3.70337130
H          12.65509800    13.44411370     3.15731600
H          11.75758460    12.55144310     3.98713040
O           5.96453380    11.13047030     0.94853310
H           6.56901170    11.56037620     1.55352910
H           5.36431170    11.82454590     0.67609130
O          18.54849820    11.44698520     2.39209870
H          19.17554660    12.14128590     2.59455180
H          19.04411890    10.63601780     2.50577760
O           6.59221360    17.53208920     1.88914360
H           6.78631780    18.45841410     1.74604740
H           7.41856290    17.08367350     1.70941100
O           7.69627380    14.40994640    15.65932080
H           7.50260640    13.48192500    15.52703290
H           8.51919460    14.41556640    16.14819910
O           4.69733190    16.55952070    10.03432460
H           4.87482880    16.02191540    10.80614570
H           5.06577010    17.41639140    10.24940010
O           6.53476430     8.85458760     7.75292060
H           6.13273050     9.71408560     7.62696600
H           6.37119670     8.64613150     8.67271520
O          15.46637820    16.60962300    12.92459490
H          15.87296200    17.33162310    13.40380000
H          14.66531280    16.41921420    13.41272350
O          14.79313560    13.61248020     6.89525560
H          15.46392540    14.24737450     7.14661840
H          15.28014090    12.80862240     6.71395250
O           8.83214090    15.37648200     0.91930440
H           9.72543240    15.70350460     1.02568500
H           8.77511410    14.63511370     1.52209250
O           0.76882000     0.81424460     9.61889270
H           1.65871260     0.87114470     9.27091880
H           0.69020310    -0.08784730     9.92918210
O           3.51609420     6.45993800    16.74460980
H           2.60273220     6.66487500    16.54460330
H           3.51855900     6.26728630    17.68221860
O           3.18330570     9.62377450     0.36977540
H           3.30215550    10.36285780    -0.22676710
H           3.76465460     8.94437890     0.02818080
O           1.31584020    10.78285410     6.12030170
H           0.72187390    10.13907810     6.50629380
H           2.17718170    10.36706830     6.15832000
O           7.74643230    16.64386180    13.50233940
H           8.02192210    15.90629100    14.04669570
H           8.27010540    17.38139150    13.81546780
O           0.64555660    15.65171810     0.22082670
H           0.73488990    16.39781000     0.81378320
H          -0.28419290    15.42701820     0.25699040
O          16.14486500     3.64922450     3.69580530
H          16.54833410     2.80190320     3.88419650
H          15.34123330     3.65274360     4.21579840
O          18.72710040    10.52258110    10.61316490
H          19.30871580    11.11456110    10.13617990
H          17.84706310    10.77436730    10.33321860
O           5.24472760    11.89262390     6.50559380
H           6.06724930    12.26694970     6.19004630
H           4.66773610    11.90426250     5.74193380
O           6.41425900    14.17819120     4.72228860
H           6.67160030    14.81810000     5.38600830
H           7.24247260    13.84030530     4.38151450
O          18.69118500    17.39871980     4.18482830
H          19.20661160    18.03229140     4.68398090
H          18.51516720    17.83628270     3.35188840
O          13.67423340    17.45880320     7.12420610
H          14.55647370    17.37875560     6.76161150
H          13.80194850    17.87988090     7.97427320
O          16.26920890     6.54754070     7.56903120
H          16.87006950     5.88913200     7.22018190
H          16.30331610     6.42425870     8.51764580
O           6.57039830    18.34398270    11.06363300
H           7.24924280    18.40657810    10.39170740
H           6.96181490    17.80360600    11.74993900
O          12.26909160    10.70590210     4.10104660
H          12.92016120    10.45060440     4.75462480
H          12.57702920    10.30647950     3.28749350
O          14.64234450    17.59291840    10.38967800
H          14.10614300    18.38326260    10.45351600
H          14.89747140    17.40300940    11.29249290
O           2.89173220    15.08098600     5.37182090
H           2.71314910    16.00293350     5.55716560
H           3.75019790    14.91988560     5.76337670
O          19.69799800    11.01376440    15.23455430
H          20.63438800    11.01140210    15.43304440
H          19.31395720    10.42502210    15.88426780
O           4.74429800    15.04565620     7.50200130
H           4.64287330    15.39439110     8.38762380
H           5.63506360    15.28857140     7.24949220
O          11.77838130     4.19950010     1.77369870
H          12.16381550     3.96876740     0.92845640
H          11.61205670     3.35813980     2.19876360
O          19.86143300     5.21886630     6.01739880
H          19.90119170     5.22961240     6.97371240
H          20.48869900     4.54352380     5.75917430
O          15.97210600    13.13843060    14.02827070
H          15.52937600    13.37020400    13.21187500
H          16.90131760    13.27600770    13.84423730
O          17.77094840     8.21128750    14.84302140
H          17.59405520     8.67883010    15.65932080
H          18.16474340     7.38435840    15.12113570
O          16.80812640     4.50705390     1.06649740
H          17.15456200     3.64264300     0.84512070
H          16.64044760     4.46397690     2.00791100
O           1.30361820     7.60204360    13.62506390
H           0.86071960     8.40211580    13.34229660
H           1.07587530     7.51661630    14.55084230
O          13.97877410     9.92040540    16.79888920
H          14.43583770    10.59231190    17.30472180
H          14.16047950     9.10449310    17.26526070
O          14.18218900     4.20131210    14.16260240
H          14.20211510     5.15149160    14.27659130
H          14.93578050     4.01125910    13.60384460
O          15.25183580     9.52743240    14.52379420
H          15.03843780     9.99523160    15.33117100
H          16.07466890     9.07837680    14.71750640
O           3.84067060     6.37196540    12.09018710
H           2.98050830     6.35072180    12.50959300
H           4.21798420     7.20932630    12.35980320
O          17.44876670    12.19423390     7.60387370
H          17.10927200    12.39708710     8.47555260
H          18.28399660    12.65953920     7.55787990
O           3.77683830     1.56831680     4.49620290
H           3.21598860     2.34327840     4.52962780
H           3.73448040     1.28116740     3.58407190
O          14.19200230    16.71190070    15.27702900
H          13.91493130    15.83863640    15.55428700
H          13.59471800    17.30757330    15.72941780
O          18.94515800    16.21096040     7.31928210
H          19.59891700    15.86012460     6.71451430
H          19.23246960    17.10821720     7.48844290
O           2.76219270     5.52912280     4.05296180
H           2.09344150     5.44738960     4.73290490
H           3.55747650     5.77181430     4.52715210
O          11.74638940    13.63242440     6.55023240
H          11.69313050    13.49003120     5.60518260
H          12.63014980    13.34991840     6.78558400
O          14.11194320    16.04587550     4.58964820
H          13.31437970    16.28610040     5.06125930
H          14.43996330    16.87304880     4.23691890
O          13.65496920     3.77308560     4.70719860
H          13.47095010     4.20479350     5.54146290
H          12.79766460     3.67900110     4.29197690
O          14.33909320     6.98218970    13.92155270
H          14.47135070     7.91252800    14.10378840
H          13.54037280     6.75596280    14.39810180
O          13.20925240    18.45569040    13.11432740
H          13.08976650    18.95688060    12.30762860
H          12.50585560    17.80665780    13.09947490
O           3.37838750     5.97227810     9.30147650
H           3.99600120     5.39622500     8.85097980
H           3.57310910     5.85216190    10.23093220
O          19.37820630     5.45265720    14.70951650
H          19.79030610     4.69945570    14.28632260
H          20.10673900     5.93832210    15.09630200
O           9.93572330     7.02000950    12.08071900
H           8.99544910     7.19865890    12.09488960
H          10.16465280     6.86888120    12.99777030
O          14.28359320    10.16937070     8.76289560
H          13.60326190    10.84031580     8.81959150
H          14.56905080    10.19429780     7.84959170
O          14.56957910     7.54149910    17.98716930
H          15.44812110     7.19308280    18.13883970
H          14.13535980     6.87360480    17.45650670
O          20.01330180    13.09964850     6.78322360
H          19.79924580    13.33342550     5.88002970
H          20.53756900    12.30247590     6.70647100
O          14.69062900    13.33933830     2.95251970
H          15.38545320    12.81629370     3.35236240
H          14.61707590    14.11014180     3.51526570
O           0.65550970    18.01146130    16.64088440
H           1.32227520    18.13965610    15.96618270
H           0.62641780    17.06370930    16.77185250
O           0.36962770    13.45009520    12.30132680
H           0.45446720    14.11228560    11.61536880
H           1.27116040    13.24550340    12.54954620
O           0.43186160     1.47797330    12.58461570
H          -0.49150210     1.26695950    12.44639680
H           0.68885990     1.95622770    11.79629040
O           9.63678930     5.46497440    17.35823820
H           9.62396810     4.65830900    17.87336730
H           8.75962450     5.83243940    17.46678350
O          18.61765100     0.13346040    11.08429050
H          19.09142490    -0.28296530    10.36431880
H          17.79590800     0.42802180    10.69160370
O           2.05442710     7.45557550     7.25213000
H           2.82373670     7.45216180     6.68258330
H           2.32624050     6.96023610     8.02477930
O          17.70667460     5.30064540    12.64154720
H          18.00278090     6.17048790    12.37335680
H          18.27330020     5.07129810    13.37813850
O          18.47113610     8.22505190     1.12530410
H          18.25563810     8.28596970     2.05593900
H          19.23344800     8.79395480     1.01823770
O          14.40130140     7.66148330     6.12778330
H          13.82642840     6.91733650     5.94890360
H          14.97695450     7.35629940     6.82901050
O          20.13256450     2.75698160    14.92917060
H          20.20533750     2.36607500    15.79987530
H          20.69020270     2.21155570    14.37438770
O          17.17621420     3.43154690     6.54766040
H          18.07136340     3.17610860     6.77057310
H          17.02282910     3.04082820     5.68740220
O          12.93151000     1.29197250    10.73349570
H          12.18913270     1.14031730    10.14859580
H          13.04997440     2.24180170    10.72882460
O           4.00605870     7.84687420     5.36700680
H           4.93965390     7.67821840     5.23977850
H           3.78713130     8.49753380     4.69996600
O          10.06840710    12.88662150     8.29928780
H          10.60698320    13.29262730     7.62007760
H          10.20879170    13.43134210     9.07375810
O          13.71420100     4.22724440    17.82135960
H          14.64153390     4.32137970    18.03913310
H          13.66997620     3.42265990    17.30471800
O           5.04876760     0.28952350    14.39312360
H           5.80253890     0.87562880    14.32573320
H           5.37034320    -0.45710050    14.89846990
O          18.33328630    15.25640300     0.52780180
H          18.17629430    15.31024930    -0.41489950
H          17.85927390    14.47242640     0.80515650
O          14.41258340     1.13453420    17.60785290
H          14.50653360     1.61736240    18.42900090
H          15.28563400     0.78156220    17.43631550
O          11.72868920    16.05906680    13.20613000
H          11.86824700    15.11498170    13.28000260
H          11.17478560    16.27864460    13.95526890
O          17.61799430     2.03323080    17.72221570
H          17.74315450     1.33246080    17.08230210
H          17.49401090     2.82128830    17.19322970
O          17.58489040    15.59389020    11.31115060
H          16.88119130    16.13291930    11.67238330
H          17.67102620    14.86737350    11.92839050
O          13.66900060    14.85619260     9.42924400
H          14.34326270    15.47516060     9.70938780
H          13.93451400    14.59575460     8.54725360
O          13.65003780    14.05711170    16.35929300
H          14.32027340    13.42422960    16.10146520
H          12.84274100    13.54502010    16.40690230
O          11.43636700    16.16278840     6.19638820
H          11.28638650    15.25855450     6.47224860
H          12.19126030    16.44814680     6.71110870
O          10.87690070     0.67064610     9.02318760
H          10.36855320     1.37350210     8.61845490
H          10.27172570    -0.06985910     9.06378560
O          11.34795190     7.63170860    17.55608560
H          10.79563900     6.90148120    17.27688980
H          11.59632970     7.41427950    18.45456500
O          16.72066880    15.58512020     8.70933720
H          17.47850420    15.60698220     8.12500860
H          17.08938030    15.70577340     9.58439450
O           9.08069990     5.23356770     6.04015640
H           8.62385370     6.06942560     6.13430830
H           9.62071040     5.34260610     5.25738530
O          16.33966450    11.48796080    10.03404900
H          15.88532920    12.01280980    10.69309710
H          15.73909470    10.76654620     9.84667590
O          17.64899250    10.15413760     5.88987920
H          17.82837100     9.32836820     6.33950190
H          17.99379730    10.82656860     6.47739840
O          19.87104990    14.38119700     4.28778600
H          20.58549120    14.36332130     3.65100840
H          19.33330540    15.12767600     4.02353140
O           2.86542030    11.82519910    12.42755030
H           2.33266020    11.36668400    13.07729050
H           3.67206240    11.31262210    12.37439350
O          12.06192210    11.93641000     0.65754540
H          12.95999910    11.61711410     0.56956920
H          12.15068050    12.88761140     0.71730170
O           7.17058090     3.06600280    11.80947110
H           6.97406100     2.13655350    11.69227030
H           6.40961930     3.41504620    12.27351570
O           6.03640650    17.06891440    16.27698900
H           6.72062300    17.68959620    16.52765460
H           6.51093290    16.33119010    15.89381980
O           3.64766880    12.35284710     4.27413750
H           2.87241170    12.68183710     4.72908070
H           4.04961680    13.13263510     3.89125320
O          19.87441060     3.96791600     2.71535710
H          20.73283770     3.75279570     2.35058620
H          19.90990260     4.91174840     2.87076740
O           7.53639030     1.36207900    14.35301020
H           7.74747090     2.29095220    14.25882910
H           8.37702270     0.94288960    14.53698920
O          19.57061770     3.80547790    10.69548990
H          18.80931470     3.24638870    10.54034420
H          20.03973770     3.80827900     9.86113360
O          18.86635020    17.11947440    13.46847630
H          18.65905760    16.18585970    13.50878620
H          18.63778690    17.37722590    12.57541660
O           1.40632130    17.33453560     7.02857920
H           1.62721230    16.47393230     7.38466980
H           2.15907340    17.88424110     7.24633840
O           3.36274150     3.08308120     7.89187570
H           4.00100140     2.42719170     7.61140200
H           3.39234260     3.05251190     8.84812830
O          15.79296210     0.73031370    13.94537830
H          15.84939290     1.49081170    13.36685470
H          14.95731830     0.32061710    13.72158530
O           5.93152240     4.84793230     8.58437820
H           6.65880110     4.63677980     9.16979310
H           6.34548190     5.00844620     7.73637820
O          20.15441320    16.42584990    10.38300320
H          20.84605030    16.62178610    11.01504610
H          19.36650090    16.31835750    10.91579910
O          10.98874470    14.42000580    10.61419300
H          10.97147560    14.47470570    11.56967260
H          11.88374140    14.66236780    10.37655070
O          13.59522250    10.59545900    12.42008400
H          13.98786830     9.73833470    12.58560850
H          14.34125230    11.19094750    12.34892560
O          19.92398260     9.06396580     8.30830380
H          20.56480600     8.90603540     9.00158310
H          19.23847390     8.41410920     8.46321580
O          20.30664060     9.73868470    12.93775080
H          19.90773390    10.21191220    12.20757200
H          20.15473180    10.29968170    13.69830130
O           0.67241660     5.43541100     8.66725440
H           0.67393730     6.38630910     8.55760570
H           1.56203680     5.22567030     8.95153710
O           9.14922140     4.22374730    14.03240110
H           9.81224820     4.12137130    13.34965130
H           9.47357370     3.69619890    14.76227760
O           3.56595900     6.66354700     1.73542730
H           4.43084100     6.95685100     2.02210450
H           3.14315410     6.34800480     2.53411410
O           8.39691350     4.32116030     9.70130350
H           9.25641160     4.37364150     9.28328420
H           8.45374870     3.55348320    10.27022650
O           8.45716380    17.91719440     9.15113160
H           8.68117240    17.01120950     9.36383060
H           8.41034510    17.93425180     8.19522950
O          10.74731250    16.66287230     3.28460140
H          11.05406000    16.65327450     4.19126940
H          10.60849760    17.58943180     3.08851360
O           3.86508660     0.24733870    11.79092220
H           3.99503520     1.19405500    11.73548980
H           4.15749120     0.01666770    12.67269420
O           1.93027310    11.13371560    15.70869260
H           1.89173650    11.97793100    16.15819170
H           2.84128090    10.85473820    15.80071450
O          20.58212660     1.76595440    17.61571310
H          19.74859240     1.72134910    18.08418460
H          20.67211910     0.90623610    17.20459750
O           1.74687620    14.50788880     3.01468250
H           1.95363040    14.54772090     3.94843750
H           2.59906530    14.53180220     2.57944270
O           6.25103570     0.79890760     5.38050370
H           5.43798970     1.20076880     5.07440470
H           6.04059600     0.46765460     6.25355530
O           7.37354760    13.16172030    10.77573300
H           8.00761130    12.64295480    11.27078630
H           6.89517020    12.51907540    10.25190730
O           6.80885030     1.55870570     0.41431010
H           6.46355150     2.35531380     0.81731970
H           6.19302460     1.36094420    -0.29129660
O          16.75554080    17.31537820     1.37803760
H          17.43970110    16.65697670     1.25694810
H          17.13037680    18.11926840     1.01819170
O          13.57610700     7.40175720     9.27646350
H          14.10299590     7.20807840    10.05177590
H          13.84467510     8.28355790     9.01852890
O           0.27364920     7.37899350    16.47290420
H          -0.03548630     8.15972810    16.93238260
H           0.47151040     6.75348570    17.16991420
O          12.55683230     7.16063930     1.90599430
H          12.39205840     6.23741870     2.09768560
H          13.27326110     7.14931680     1.27130310
O          11.38610650    10.73650460    16.11583710
H          12.27990630    10.47249410    16.33413120
H          10.92003150     9.91207410    15.97684100
O           5.90491390     7.49093480    10.18938640
H           5.97011850     6.59953780     9.84676170
H           5.01453780     7.76669600     9.97163110
