1079
Conf 1. Box X: 18.908 0.000 0.000 Y: 0.000 23.615 0.000 Z: 0.000 0.000 24.486
N          12.37303920    12.19591710    12.66054820
H          11.47445390    11.71322630    12.61588190
C          13.56706710    11.66776280    12.22622010
C          14.55723090    12.78729060    12.33025260
C          13.94807050    13.86840820    12.95824720
C          12.49459080    13.50574490    13.10840890
C          16.01113510    12.44745450    11.93417260
H          15.95919230    11.79840090    11.04262640
H          16.59758950    11.90591240    12.69681450
H          16.62514110    13.27546310    11.53892800
O          13.74139400    10.50275040    11.89856820
C          14.52374360    15.05393790    13.36840720
H          13.79591560    15.87436290    13.39258480
C          15.82170100    15.31127360    13.59953780
H          16.26643370    16.26718900    13.89155480
H          16.48431970    14.45212170    13.45942780
C          11.43043610    14.24718090    13.64551260
H          11.77868460    15.23012540    13.98603150
N           9.35841270    12.81696700    13.51410960
H           9.78032970    11.94403270    13.20378780
C          10.04347420    13.95075420    13.85716720
C           9.08469100    14.89573480    14.38975620
C           7.86138110    14.22541810    14.43087670
C           8.03326320    12.92586140    13.88791180
C           9.51411340    16.26387600    14.80737020
H           9.91103650    16.75826450    13.90357880
H          10.31245800    16.24205590    15.56959440
H           8.68543150    16.79875560    15.30335900
C           7.11925550    11.88493350    13.75636580
H           6.16602370    11.97680660    14.28939910
N           8.14675330    10.49539950    11.92031570
H           8.66706090    11.27995490    11.53291800
C           7.29729460    10.65970040    13.04325960
C           6.54918810     9.44246480    13.10432150
C           7.04832740     8.58308600    12.07923410
C           8.10003380     9.27127080    11.42540450
C           6.72131400     7.15600490    11.80132770
H           6.30539890     6.96206470    10.79722690
H           5.97489640     6.85013100    12.55506230
H           7.61328700     6.52261160    11.94970800
C           8.91247840     8.80056570    10.37424560
H           8.65894990     7.83029650     9.93207070
N          10.46714880    10.86025240    10.21151260
H           9.84467410    11.64250180    10.41900160
C           9.96325590     9.58738520     9.87119960
C          10.75644680     9.08728980     8.69403740
C          11.66003040    10.07905960     8.30595300
C          11.46210670    11.22098160     9.25290580
C          10.55919170     7.78067210     7.97320650
H          11.47782800     7.32782940     7.56107330
H           9.84842110     7.89503570     7.13622280
H          10.08349320     7.07147690     8.67289830
O          12.02614020    12.26789670     9.28062340
C          12.59087940    10.09651370     7.21165080
H          12.46487050     9.29423710     6.47565360
C          13.39672660    11.08619690     6.84751420
H          13.91369060    11.00165940     5.88708110
H          13.71746640    11.84230800     7.57018950
C           5.54348560     9.09756280    14.22950840
C           4.17932650     9.82571220    13.93535520
C           3.21581650     9.58407970    15.05111790
O           2.69051410     8.34886840    15.20884800
O           2.99958850    10.44519040    15.88655380
H           5.92750840     9.57003780    15.15043740
H           5.40651850     8.02425580    14.44877530
H           3.72005010     9.33973880    13.05688380
H           4.16493130    10.92540360    13.83895590
H           2.76299450     7.86868570    14.36570070
C           6.49383160    14.80230330    14.87296390
C           5.38019130    14.98057750    13.71535780
C           6.11116930    15.36237340    12.41876890
O           6.51340820    14.54342460    11.64616680
O           6.40426730    16.66213230    12.29508690
H           6.03232190    14.12143900    15.60933970
H           6.71682120    15.79575350    15.29974840
H           4.79755210    14.04846760    13.61279580
H           4.71718500    15.81333160    14.00821780
H           6.10401540    17.02914050    13.14472480
O           2.25464700     0.29199110    13.39980410
H           2.11109950    -0.42946830    12.78733160
H           1.87561880     1.05524050    12.96389100
O           6.59926220     2.84782000     1.45747570
H           7.17855170     2.48083660     0.78965960
H           5.71684840     2.69295570     1.12043760
O           4.16197590     7.62310890     5.42385100
H           3.93477150     7.44223400     6.33593270
H           3.62181500     7.01633640     4.91760440
O          16.01023100     7.98938370     6.66435530
H          15.50257780     8.23556420     5.89110570
H          15.59574700     7.18518640     6.97692870
O          11.42431640     4.70205690     6.85613540
H          11.97996330     3.92503620     6.91717530
H          10.91408540     4.69586180     7.66598510
O          10.52273750     0.43826090    17.92586520
H          11.23529910     1.07733330    17.91726110
H           9.97562980     0.69951620    18.66657260
O           9.95767780    18.42257880     2.29631040
H           9.59139920    19.19030190     1.85736560
H          10.15282540    17.81107140     1.58623310
O           1.58362700     3.68653660    12.64295670
H           1.58237730     3.74772520    11.68771460
H           0.71625110     3.99603440    12.90392020
O          18.75245090    11.03542900    19.60965730
H          18.18051720    11.37992670    18.92376900
H          19.28118130    11.78612900    19.88007550
O           1.90809600    18.52955250    19.31865880
H           1.45765790    18.38875770    18.48588370
H           1.23043660    18.86943050    19.90303230
O          16.13629340     3.74995970    10.48552230
H          16.48629380     4.43067170     9.91075230
H          16.43441960     2.92907020    10.09374330
O           9.25880340    22.56615260    14.28991990
H           9.20861240    22.75347900    15.22726730
H           8.35033800    22.59882350    13.99016090
O          13.42616180     2.78473160     9.86869340
H          14.29466340     2.87303520    10.26130010
H          12.82051370     3.01985140    10.57164480
O           1.60915430    19.17376520    14.69849490
H           0.98987800    18.59754940    14.25049300
H           1.38599380    20.05177690    14.38941860
O           8.98222350    15.50448040    21.98953060
H           9.50492380    14.70582010    21.91770550
H           8.31242560    15.29464150    22.64035420
O           2.67301490     6.66483400    13.29336830
H           1.88878320     6.36229130    12.83545970
H           3.37853340     6.11878400    12.94651890
O          10.84753610    15.03998760     9.83972450
H          11.51312640    15.63409610    10.18650340
H          11.28980350    14.57203100     9.13145350
O          16.13012890     6.96829700    13.21649460
H          15.55773070     6.30047230    13.59411910
H          15.60453030     7.37133690    12.52545450
O           5.19695230    14.25390240     3.07012080
H           6.10966440    14.28657150     2.78355310
H           5.09948970    15.01212500     3.64616780
O          17.04560660     7.80786510    15.82956600
H          16.79177670     7.79663470    14.90670300
H          16.97010230     6.89574240    16.10985570
O          13.70673750    20.94878770     2.37490560
H          13.02369880    21.07935520     1.71715070
H          14.45821860    21.43817900     2.04023360
O           1.08913640     8.36551190     4.47125240
H           2.04580550     8.33366110     4.46991440
H           0.81889590     7.44865700     4.42045120
O          11.26244740     3.08918360    11.44701290
H          11.08058930     2.27316160    11.91313460
H          11.33125400     3.74896790    12.13707260
O           3.09162570    22.73468780    19.33554460
H           3.48547670    23.53536030    18.98908040
H           2.81219530    22.24978070    18.55900380
O           3.48387930    18.96769710     1.37246040
H           2.94607470    19.62719540     1.81070420
H           3.59378620    19.30137440     0.48206050
O          13.42924880    21.74380490     4.80417440
H          12.54363160    21.54458240     5.10785770
H          13.53102300    21.22540860     4.00596330
O           5.76250030    17.73796080     8.31493470
H           6.67386340    17.88080980     8.57036110
H           5.54896310    16.87237740     8.66335580
O           9.01955130    22.64664460     5.88881300
H           8.86249640    21.70397950     5.83451650
H           9.97302150    22.73038100     5.89947610
O          12.74448110    10.43663220    15.48904320
H          12.11057380    10.51944160    16.20145990
H          12.83837800     9.49276160    15.36049940
O          10.58528520     2.34444590    21.74294660
H          11.00790310     3.03023120    21.22591210
H          10.32001970     2.78307320    22.55132290
O          18.21469310     7.00792880     1.60077190
H          17.65252690     6.71350190     0.88417250
H          18.96091650     7.42045880     1.16579910
O          12.44249150     4.11776070    20.54068570
H          12.99573330     4.85932730    20.78611370
H          12.31518750     4.21587470    19.59707640
O          17.36763760     4.66982460    17.15707400
H          16.48325540     4.56019500    16.80766870
H          17.30449300     4.37500380    18.06554790
O           4.57554820     7.14953610     0.90709690
H           4.96938800     7.93517680     1.28642560
H           5.28018810     6.50170800     0.91285620
O           7.14220380    15.13481710    23.90244100
H           7.34952450    14.78747750    24.76996990
H           6.34715410    15.65113450    24.03489490
O          17.91234970    20.70339580    16.62287710
H          18.17287450    20.82994270    15.71054550
H          17.49038890    19.84430120    16.63451000
O          14.34235190    11.45636750    23.10995290
H          13.62337590    12.08351330    23.18736840
H          14.61548330    11.51692770    22.19454960
O           0.53043180     8.95674900    21.71004100
H           0.61106140     9.81264500    21.28911970
H           0.38715210     8.34659100    20.98657040
O           1.75936040    20.14415930    23.04816250
H           1.51893790    21.05347250    22.87045290
H           2.63912250    20.05311390    22.68215560
O           9.01628210     3.94324760    17.88155940
H           9.44442270     3.46056910    17.17448810
H           8.90400700     4.82797050    17.53386310
O          17.84373280    16.02198790     3.54970070
H          18.53389740    16.13925170     4.20250420
H          17.76938630    15.07316210     3.44754700
O           6.04112670    22.22451020     6.32640840
H           5.63869380    22.30639650     7.19103240
H           6.97586770    22.35773850     6.48370270
O           4.51368760    19.15812870    23.15020750
H           4.90118070    19.91418270    22.70922660
H           5.26242070    18.67531780    23.50024030
O           2.48427920    13.79538350    12.58954140
H           2.67128540    13.06290050    12.00240610
H           1.89431990    13.42950250    13.24856470
O           4.45323510     6.95026300    18.41198350
H           4.69542170     7.18652820    19.30739020
H           3.78544860     7.59098240    18.16749950
O           6.78475240    21.61066440    23.84782220
H           6.10359670    22.28316690    23.84667590
H           6.62880230    21.11316870    24.65057370
O           9.19257830    17.55329320    17.98329730
H           8.45608520    18.15147590    18.10973930
H           9.84830470    18.07514190    17.52077290
O           8.17512800     5.79513930    14.45366000
H           7.84596590     4.98452760    14.06533910
H           7.59677840     5.95561030    15.19930930
O           6.81831650     7.24039840     6.12949090
H           5.93755340     7.23815250     5.75467970
H           7.15608260     8.11622330     5.94220070
O          14.28278260     2.09941170     0.43559360
H          13.41765210     2.22102140     0.04445130
H          14.84102340     1.83436860    -0.29539920
O           2.45150230     5.80479150    22.38564300
H           2.28778430     6.57266810    22.93317990
H           3.28442530     5.99239160    21.95288850
O           3.80428960    15.89246560    20.43748470
H           3.93343660    16.03803630    19.50027470
H           2.86419270    15.73695760    20.52840610
O          10.90172860    16.63583760    20.11449240
H          10.36724760    16.81498910    19.34088520
H          10.29675010    16.22867390    20.73453140
O           0.46097670    15.14972110     5.84390070
H          -0.42964540    14.88983540     6.07945060
H           1.00691010    14.79859730     6.54739190
O           5.42244630     9.63412860    20.90836910
H           5.03625540    10.29492760    20.33353420
H           6.16116760    10.07968900    21.32309530
O          10.71263690    17.35684970     4.69224550
H          10.53214740    17.89229200     3.91961480
H          11.63072400    17.53389170     4.89719490
O           4.24057870     4.83832070     9.25349140
H           5.19558050     4.80178930     9.19992730
H           4.05992700     5.04789730    10.16982940
O          10.25879760     4.85813430     3.98435400
H          10.67086510     4.87430480     4.84816550
H          10.95878410     4.58775900     3.39009190
O           8.11994360    10.45601080    18.56157110
H           7.96332070     9.51204490    18.58671190
H           7.39613060    10.80512430    18.04152680
O           1.99502900    17.66505240     9.73024270
H           1.83833070    18.57348060     9.98799230
H           2.47913840    17.72975920     8.90702720
O           0.54677100     4.62526320    20.86894800
H           1.00203420     3.91250970    20.42067340
H           1.18568810     4.95888330    21.49880030
O          15.57140450     2.58462310     2.59005740
H          16.31555940     1.98612490     2.52473740
H          15.11113170     2.48636130     1.75655650
O          17.60332870     7.38265610     8.79545120
H          16.93809890     7.52983950     8.12311270
H          17.12879940     7.46081830     9.62306310
O          10.01019950     9.75483130     3.62183570
H          10.39499380     8.87840650     3.62838360
H           9.29657650     9.69835470     2.98639580
O          16.72896190     3.78665140    21.36245350
H          16.71808620     3.44608280    20.46795460
H          17.63986780     4.04041670    21.51106070
O          18.10706140    17.13854600    19.10758400
H          17.18591500    16.87836840    19.11306190
H          18.23006250    17.60167880    19.93620490
O           5.21241380    22.12253570     8.84793190
H           5.17653510    22.91015240     9.39070610
H           5.41336580    21.41693120     9.46272370
O           5.43589880    19.85537340    10.22092340
H           5.34940390    19.19805720     9.53049950
H           4.87537340    19.53543090    10.92780210
O          13.33814330     1.05206380     3.59233860
H          14.19918350     1.43169200     3.41705700
H          13.49509240     0.10847980     3.62765220
O          15.72872350    18.84382630     2.51285740
H          15.37065320    17.96773340     2.36975570
H          15.79066470    18.92473410     3.46461870
O           0.63221870     5.99914360     7.58902930
H           0.33249210     5.91023730     6.68432430
H          -0.13302870     6.32303140     8.06413460
O           0.18752500     4.50845050     2.68504430
H           0.10383480     5.18323520     2.01132870
H           0.42445910     3.71640180     2.20259950
O           1.13146790    20.51831630    10.04821110
H           1.75809430    20.80901340     9.38559060
H           0.32533160    20.99004170     9.83880710
O           2.20151620     2.47631140    22.77482410
H           2.70123620     3.15479920    22.32077030
H           2.07370570     1.79252520    22.11730580
O           7.49630210     2.90528560    20.05994220
H           7.99851080     2.13390040    19.79729270
H           7.93839310     3.63694640    19.62929150
O          14.23836420     5.18859480    11.90796760
H          14.47906590     5.01514820    12.81802850
H          14.83841990     4.64793870    11.39429950
O           7.45065400     7.11718560     2.96659280
H           6.80043890     6.53226760     3.35559560
H           7.46667860     7.87772180     3.54759120
O          16.73819540    12.01516720    24.46421810
H          15.90097240    11.79096220    24.05799290
H          17.21769330    11.18738370    24.49722480
O          15.35826020    22.50265310    11.92930890
H          14.79649730    21.79495620    11.61336610
H          15.83123300    22.12101750    12.66882420
O           7.72949410     6.32144930     0.03820520
H           7.49211310     6.72956280     0.87086680
H           8.68416400     6.25778680     0.06623750
O          10.68016150    10.24096490    13.84877110
H          10.08193590     9.58081630    14.19885730
H          11.44749160    10.19539070    14.41917320
O          15.31546310     5.33498950     7.52190210
H          14.53291990     5.35272310     8.07284930
H          15.38193230     4.42598720     7.22944930
O           3.50538660     2.04102590     1.02668190
H           2.86908600     2.42843890     0.42562960
H           3.24945640     1.12056910     1.08576490
O           3.74237010     1.82100190    18.36793140
H           3.55846380     2.62900140    18.84704020
H           3.70333100     2.07510350    17.44590000
O           2.44110010    17.02900120    12.36741350
H           2.67271830    16.11251830    12.21694280
H           2.29740020    17.38668630    11.49126150
O           2.39302160     5.83059120     4.34351730
H           1.67025610     5.67989830     3.73431020
H           2.93844060     5.04777430     4.26639370
O           2.99829820    13.25435260    16.90875630
H           2.42702840    12.69069100    16.38705830
H           3.53477810    12.64645000    17.41755290
O           1.63549700    20.67850300     2.77713680
H           1.83892950    21.02786060     3.64477440
H           1.05328390    19.93808360     2.94754510
O           3.44216230     2.55136660    14.75027560
H           2.73149680     2.15332580    14.24753090
H           4.14031410     1.89664540    14.73777100
O          13.75633910    18.18536190    22.64420510
H          13.40959450    19.07116700    22.53766250
H          14.45206170    18.27717970    23.29518130
O           4.39653730    16.31861500    23.03868100
H           4.50586840    17.25498960    22.87290760
H           4.08828310    15.96226120    22.20548060
O          13.27569770    15.66441730    21.28040120
H          12.49578480    15.99982450    20.83828160
H          13.60960670    16.41163640    21.77678870
O          18.47824670     2.42893290     8.87530800
H          18.57980730     2.25280260     7.93995000
H          19.05834960     3.17149620     9.04357430
O          10.31803610    13.28984260    21.13502310
H          11.03921220    13.14601520    21.74776270
H          10.66504480    13.01213840    20.28726200
O          10.08733370     8.01039890    15.23982720
H           9.45213790     7.32450580    15.03413300
H          10.39313790     7.79706670    16.12141990
O           3.84467550    19.10824390    16.87147710
H           2.91651650    18.91681480    16.73691180
H           4.06404640    18.66582490    17.69146160
O           3.19276360    18.00848770     7.36748890
H           4.10931830    17.95546910     7.63831900
H           3.23060630    18.18559460     6.42757800
O           9.01636410    21.03078650     0.98883350
H           8.66073040    21.41618920     1.78959660
H           8.37513830    21.24929620     0.31258300
O           2.42086320    14.25219920     7.94233890
H           2.85586600    14.13159180     7.09826560
H           3.12366750    14.50841900     8.53953840
O           7.05664680    19.43174170    18.18835640
H           7.45171210    20.20657540    18.58809470
H           6.24037220    19.30285840    18.67138480
O           3.25225090     9.83160780     9.13214020
H           3.73596120     9.83889580     8.30618380
H           2.77388220     9.00257490     9.12224480
O           3.62620690     3.09474830     3.36098000
H           3.60831430     2.69813700     2.48999790
H           3.28386470     2.41456200     3.94096370
O          14.29409030    23.05006220     9.22751900
H          14.37513350    23.53345680    10.04970650
H          14.41966720    22.13395120     9.47491360
O          16.52907750    15.14068790    16.96507840
H          16.06876950    15.28346440    17.79209900
H          16.00247960    14.48495670    16.50797460
O          16.52982900    14.63370130     0.32299040
H          17.08246040    15.13978960    -0.27258110
H          16.70757100    13.72069550     0.09702830
O          13.40035250     6.17770670     9.56488700
H          12.53729530     5.76686860     9.51412870
H          13.68842320     6.01951410    10.46389870
O          17.10111810     9.42389300    23.40516280
H          16.81634710     9.64502140    22.51846120
H          17.94388010     8.98651700    23.28398320
O           5.38119650     9.31825830     1.98942470
H           6.22422500     9.77154160     1.98107430
H           4.99595070     9.54456900     2.83594800
O           7.81249760    10.06474300     1.40553470
H           7.91900970     9.89270210     0.46996600
H           8.03282740    10.99087520     1.50536160
O           9.17483620    14.71710210    18.03407290
H           9.18987460    15.61657330    17.70703320
H           8.38421060    14.67090030    18.57166860
O          17.27776150    23.58042720    24.39002610
H          16.61872100    22.95979120    24.70100400
H          16.80498310    24.14582250    23.77925490
O           2.40513610     8.73171040    18.04083820
H           2.31353500     8.94962500    17.11328510
H           1.56506220     8.33943840    18.27880860
O           7.38538550     6.56268880    21.88108440
H           8.08568860     5.96928790    21.60963630
H           7.20674990     6.32233620    22.79023360
O           5.69279480    11.73150440     5.73409180
H           6.24228000    12.38209150     5.29701610
H           6.04811290    11.67491910     6.62109760
O          12.59758950    18.99344830     9.31692790
H          12.80329990    18.45864870     8.55017760
H          12.08662700    19.72430420     8.96908280
O           6.54383660     2.18843440     6.65306190
H           7.18813900     2.64359640     6.11090560
H           7.06626420     1.72477040     7.30752090
O          15.88222120     2.33122990    18.92277530
H          16.46852300     1.76391490    18.42214010
H          15.03459740     1.88767990    18.89067460
O          11.35644150    -0.24914850     7.23879240
H          11.46607780    -0.15092150     8.18460560
H          11.69935990     0.56578200     6.87201310
O           5.69984100    16.51707080     4.52462010
H           6.60056540    16.75643920     4.74286460
H           5.16865730    17.22407910     4.89097500
O           4.83796550    19.08825490    20.04563900
H           4.51441860    19.80761150    20.58792500
H           4.06151580    18.56004520    19.86030010
O           8.49176310    21.94602580    21.65701480
H           7.84075160    21.62361910    22.28029060
H           8.65081020    21.20520970    21.07209970
O          14.27410790    14.58924670     6.35506820
H          15.15430550    14.21467590     6.32068350
H          13.93113420    14.47674370     5.46853350
O          16.73609540    14.52041630    20.93198970
H          16.58181190    13.84019660    21.58752630
H          17.02719690    15.27903180    21.43795010
O           1.23253990    15.14322660    20.28314020
H           0.67211430    15.72248650    19.76679420
H           0.85197050    15.16197200    21.16123200
O           5.80885700     4.89385030     3.55741310
H           4.86792520     4.76575280     3.67770580
H           6.04308700     4.29623700     2.84732440
O           1.24590050     8.10892010    24.18436620
H           1.71551060     8.76021480    24.70543480
H           1.25403770     8.46262260    23.29495050
O          14.58360290    12.42372130    15.93980310
H          14.77062990    12.77044490    15.06742950
H          13.79951860    11.88759610    15.82142350
O          12.29157260    21.38203050    12.40861420
H          11.76576420    20.64362530    12.71605010
H          13.19590380    21.12099460    12.58262160
O           8.38613700    22.98167420    16.85296440
H           7.69673870    23.29675290    17.43750570
H           9.20152950    23.22805400    17.28961370
O          11.77219770    21.37990000     0.52077680
H          11.88447000    22.06274410    -0.14054870
H          10.89616010    21.03030970     0.35775570
O          -0.23542050    18.94182970     0.07087000
H           0.14244820    18.92363360     0.95014010
H           0.38217900    19.46061900    -0.44455000
O          16.59537120    22.75434300     4.96199800
H          16.97642140    23.61230280     5.14891720
H          15.82072260    22.70907210     5.52244470
O           9.63319400     6.87437530    17.78072170
H          10.25683980     6.69891360    18.48535540
H           8.91739750     7.34625820    18.20638850
O           5.89036230    11.23945620    17.21236040
H           5.68524120    12.16666790    17.33249860
H           5.24156140    10.77963640    17.74514010
O          13.16211410     7.84779930    15.09415910
H          13.85673050     7.19645790    14.99672410
H          12.57143120     7.67968650    14.35995010
O           6.57320500    18.06082920    24.11738400
H           7.43904210    18.07353970    23.70946690
H           6.70247600    17.58711620    24.93904110
O          14.93511010     8.12403010    10.96200470
H          14.29895780     7.83389000    10.30827620
H          14.45737080     8.75886150    11.49584480
O           8.58042140    12.57010270     0.52865990
H           8.35814670    13.20041280    -0.15656610
H           9.53594590    12.51835250     0.50567730
O          10.97612000    20.74310680     8.05141830
H          11.38704490    20.93256570     7.20792580
H          10.24196910    21.35514450     8.10303020
O          15.71623710    22.78112220    21.02984240
H          15.15927510    23.54673000    20.88888170
H          16.12018590    22.61858940    20.17741010
O           4.72738700    22.07049940     3.73663230
H           4.84346580    23.00579830     3.56937690
H           5.12232070    21.93025780     4.59720800
O          14.68337440     8.29730320     4.42013170
H          15.45461750     8.46799370     3.87950130
H          14.25176720     7.55645850     3.99457650
O          15.01836490    21.49911120    23.54468150
H          15.46695800    20.67772100    23.74546050
H          15.33376790    21.73738480    22.67291260
O           1.27502520    17.37326240    16.94818310
H           0.38182270    17.10861020    17.16813660
H           1.17020760    17.99404720    16.22716330
O          15.38627240    16.13244820     2.59829710
H          15.44625760    15.64125440     1.77892970
H          16.29230310    16.35789300     2.80927940
O           2.26132660    21.42026330     5.40840910
H           1.89676680    22.27962490     5.19669150
H           2.41002200    21.44941140     6.35354040
O          13.58822150    14.60623170     3.86103060
H          14.16116050    15.30953030     3.55550860
H          13.78409190    13.86931800     3.28238960
O          18.54339600     5.66560650     4.96305270
H          17.62912560     5.94857410     4.97953410
H          18.61538890     5.13419910     4.17017460
O           9.52113720     3.60622100    24.04472350
H           9.68158250     4.39579870    24.56149860
H           9.57567020     2.89039870    24.67785640
O          11.79454520     7.77470590    12.61756420
H          11.99573040     8.37481880    11.89949700
H          11.00666900     8.13926790    13.02077200
O           9.29398060     1.41874970     1.22056200
H           9.04848580     0.49939620     1.32425590
H           9.51361560     1.70931330     2.10575490
O           3.80137010     4.04277130    19.88844490
H           4.31209950     4.01282790    20.69745060
H           4.08716440     4.84660530    19.45438770
O          14.94999310     5.93959520    22.70512010
H          15.26919460     5.24680420    22.12686160
H          14.17878820     6.28833390    22.25806620
O          17.78784370    16.30752370    23.04702950
H          17.86393550    17.26028440    23.09889030
H          18.67039110    15.98634620    23.23192790
O           9.88094620    20.14583970    13.85409070
H           9.32465460    20.03178980    13.08352950
H           9.70083330    21.03830530    14.14955040
O           4.75349660    15.21024890     8.87445550
H           5.07519720    14.77552990     9.66424080
H           5.20968100    14.77109340     8.15663240
O          18.81328580     7.21168800    12.41126160
H          19.10572430     8.01289650    12.84574790
H          17.89339070     7.12560750    12.66149040
O           3.09224490     2.24751160     8.86109450
H           2.32094620     2.44984220     8.33157440
H           3.32331680     3.07899640     9.27518750
O          16.65395360    15.39845850     8.84536080
H          16.56316760    14.44662090     8.80068110
H          17.59068490    15.54373740     8.97824760
O           6.89488360    13.05031780    22.03400990
H           6.71204140    13.68359950    21.33992390
H           6.91500570    13.57283590    22.83575820
O           7.29867360     2.71773120    23.01022340
H           8.06260780     3.14575170    23.39679150
H           7.44037490     2.78218250    22.06576540
O          13.20031830     5.13596530    17.87815280
H          13.02371310     6.03018860    18.17039870
H          13.83543010     5.23673630    17.16913220
O          11.43436150     8.41241840    21.27546690
H          11.10358720     8.67348190    22.13492390
H          11.88043500     9.19163700    20.94370270
O          17.22819520     0.80512320    16.98303600
H          16.43274690     1.12693580    16.55885510
H          17.92129900     0.96001800    16.34128190
O          12.39120290     7.96208380     0.98713020
H          12.47976300     7.35861680     1.72484020
H          13.09627150     8.59742450     1.11144160
O          10.74024870    22.95125770    22.78275870
H          10.56452180    23.89107130    22.73689270
H           9.88709740    22.54089550    22.64145090
O          16.50106810     9.92670440    20.75930020
H          17.05151180    10.62603760    20.40690990
H          16.57660480     9.21765140    20.12073330
O           8.51568790    20.28945920    11.50601860
H           7.79772090    19.78098110    11.12891670
H           8.26265530    21.20184900    11.36547180
O           0.46786030    22.02884290    14.66475960
H           0.74381910    22.00330730    13.74855710
H           0.92656220    22.78441810    15.03209020
O          13.40748500     6.62057590    20.66336060
H          13.54723450     7.03944020    19.81409260
H          12.85726070     7.23688130    21.14673610
O           7.81525610    14.54341320     2.30616660
H           8.48930550    14.82401850     2.92515850
H           8.08197690    13.66203310     2.04489710
O           5.55757050    13.85348130    17.95798870
H           5.95854470    14.46820450    18.57245250
H           4.99435380    14.39784620    17.40781970
O           2.95504760    16.33219530     1.44624520
H           2.48073890    16.30868910     2.27733520
H           3.20855810    17.24919510     1.34100530
O          18.36230280    10.75248150    15.46025560
H          17.95027350     9.89212040    15.53927710
H          17.97242160    11.27035330    16.16455270
O           1.77632160     0.88901790     3.60062120
H           2.16486430     0.23176510     3.02331350
H           1.02821640     1.22761330     3.10876370
O          17.09483150     9.01624870     3.15710540
H          17.92870330     9.23662380     3.57222560
H          17.29223250     8.25384810     2.61303710
O           7.51787280     7.86410900    19.25262830
H           7.82791040     7.33474640    19.98739620
H           6.80759670     8.39051250    19.61956020
O           8.59749980    19.78749280     6.09513760
H           8.95476150    19.50612450     6.93741230
H           8.12660220    19.02153590     5.76680950
O          13.16220570    18.76161000     4.68110280
H          13.98617740    18.99550440     5.10841560
H          13.16770550    19.25764080     3.86247250
O           2.08831810    12.55732540    20.25849340
H           1.88478300    13.48863410    20.17207910
H           2.63114260    12.50276570    21.04500200
O           8.36473370     2.07499770    10.57329850
H           9.05886270     1.58944020    11.01900200
H           8.52110860     1.91621580     9.64240360
O          10.15093040     4.63565160     9.15982720
H          10.52005000     4.03638550     9.80856420
H           9.20607760     4.59668730     9.30804160
O          13.31686590    10.24455640    20.61894800
H          13.24607850    11.18860240    20.47753140
H          14.03566930    10.14920810    21.24381640
O           3.76272990    11.01839640    18.72733500
H           3.18166520    10.34489630    18.37378880
H           3.17959620    11.61664010    19.19454960
O           6.85910030    15.29834560    20.21362300
H           6.19216730    15.93434720    20.47233960
H           7.66246130    15.61109540    20.62959100
O          12.37580010    17.04130740    11.04515360
H          13.02748200    16.41631320    10.72746560
H          12.41001700    17.76297380    10.41725440
O           3.19346310     9.98507690     0.78818230
H           3.01903960    10.80395890     1.25212380
H           4.07172440     9.73139760     1.07197000
O          -0.06477190    17.78922840    13.05498600
H          -0.43613460    17.97838590    12.19327640
H           0.75044800    17.32390980    12.86756800
O          17.54358100    18.72903630    10.69915680
H          17.95278550    19.18315890     9.96257310
H          16.75079150    18.33985140    10.33003330
O           6.62363620     0.58222230    18.45064740
H           6.04422190     1.27389610    18.13111880
H           6.38653040     0.47782880    19.37211990
O          11.20902440     7.34963320     3.83081050
H          10.40485190     6.83167740     3.79532150
H          11.72692390     6.94066620     4.52417760
O          13.51694200    14.11119650    17.75919340
H          13.38762860    14.79780010    17.10490990
H          14.12774850    13.49995990    17.34744450
O           4.78194000     0.29487070    23.47690200
H           4.95383830     0.69163410    22.62293240
H           4.33116150     0.97867000    23.97232820
O           1.17011280     0.82697190    20.37275700
H           1.77183880     0.16992890    20.02282520
H           0.38498730     0.74522340    19.83134460
O          15.73106960    18.17118450     8.82289980
H          16.34476090    17.49081420     8.54592800
H          14.90042500    17.92446900     8.41621300
O          11.14706520    17.64419170    24.34966660
H          11.25320630    16.81092070    24.80860520
H          12.02561000    17.85835270    24.03577800
O          16.79966930    13.59943010     5.40789510
H          17.28750990    13.41440200     4.60539440
H          16.52572630    12.73899080     5.72543620
O          12.42160510    21.89285660    20.76257510
H          13.03471470    22.62137030    20.86052890
H          11.67947480    22.12783430    21.31958390
O           7.85442110     3.67899780     4.83091160
H           8.57200050     4.19690700     4.46610640
H           7.06692170     4.18302440     4.62589070
O          17.77550130    21.80664630     9.79879670
H          17.58198170    22.30108640     9.00236030
H          16.92701910    21.70586200    10.23025040
O           3.14992710     7.11971950     7.90618040
H           2.24233890     6.86071780     7.74670120
H           3.59439990     6.30439570     8.13839240
O           3.40022110    21.89118000    16.19979860
H           2.68267350    21.77758790    16.82306100
H           3.67280890    20.99952510    15.98327730
O           2.91619370    11.49978830    11.30108550
H           3.06053190    10.72200010    10.76215840
H           2.14638400    11.28631970    11.82839490
O          18.71000290    11.18401720    11.16781520
H          18.20064740    10.60282330    10.60301110
H          19.09482000    11.82358170    10.56856440
O          15.95328710    18.87391850    -0.24511480
H          15.82348160    19.25686070     0.62249000
H          16.90179060    18.88693430    -0.37319560
O          18.68329240    18.73916440    21.30715750
H          19.23437690    18.84724430    22.08230780
H          18.48434830    19.63294410    21.02821350
O          16.58532910    18.09480860    16.15719990
H          16.13703540    18.46718220    16.91654210
H          16.42656520    17.15318490    16.22331050
O          13.46413710    16.74567600    16.15468030
H          13.41981120    17.18851850    17.00212100
H          12.83052640    17.21047780    15.60811710
O           1.59066020     0.82531340    16.21276470
H           2.37911270     0.88736710    15.67357540
H           1.13147130     1.65145960    16.06156920
O           5.04454660    23.79243850    14.87138460
H           4.91504380    23.71037100    15.81622600
H           4.38590430    23.21316910    14.48814870
O           9.18129830    18.40955920    22.48205380
H           8.93801500    17.55542180    22.12498660
H           9.88272000    18.21794700    23.10456850
O           7.91604280     9.72904970     5.69581890
H           7.97920420    10.02350430     6.60441110
H           8.58630470    10.23250390     5.23374180
O          13.24813180    17.87539100    19.16360660
H          12.48678870    17.29545400    19.14739420
H          12.87768080    18.75769230    19.14033320
O          18.13972660    13.00681110     3.01253030
H          18.65870290    12.25668140     3.30270290
H          18.20208740    12.98618130     2.05758670
O           3.31647250    12.24947930     2.38366130
H           3.89892480    12.47280120     3.10968300
H           3.57137370    12.84608650     1.67987350
O          14.05832770    12.94696430    20.36519810
H          14.04837320    13.29307370    19.47281840
H          13.75930980    13.67625430    20.90829850
O          14.49110790    20.62411690    13.97534660
H          15.40127750    20.36966900    13.82342620
H          14.11413480    19.88849260    14.45802780
O           0.69818200     9.62855150    13.19816880
H           0.11403770     9.92398260    13.89654450
H           0.44170710    10.14749910    12.43583970
O          15.59387680     7.27113820     0.39971350
H          15.12644200     6.63492870    -0.14155620
H          16.06348420     7.82045560    -0.22794200
O          14.14326380     6.13680170     2.52351950
H          14.80461410     5.72969440     3.08308320
H          14.64771460     6.62364390     1.87179370
O          11.35211090    13.92979810     6.32321170
H          11.31396100    13.28798100     5.61409280
H          12.16221430    13.72362520     6.78953550
O          10.74204440    21.08182530     4.54435540
H          10.53098490    20.16880800     4.34919550
H          10.28708460    21.58279990     3.86740110
O           6.63782020     3.43209240    14.05294700
H           6.16300490     3.28474590    14.87091540
H           7.41435480     2.87688040    14.12341590
O           8.07794090    10.71253590    21.34553530
H           7.91225770    11.65139390    21.43112750
H           8.24155330    10.58237460    20.41144750
O          11.37027930    11.49039080     0.54473120
H          11.46966740    10.81617740     1.21688460
H          11.38574220    11.00839230    -0.28211350
O           5.39381460    11.90704730     9.47713380
H           4.68061540    11.29841420     9.28440570
H           5.22783140    12.19387050    10.37513830
O           5.09350820     0.88615210    10.38798430
H           5.73653170     1.58146370    10.52689080
H           4.26015810     1.34672060    10.28982260
O           4.87652640     3.97480180    22.74659350
H           5.61370900     3.42007900    23.00169370
H           5.22070460     4.86678120    22.79292300
O           0.28571100    18.36643220     3.23226070
H           0.58707020    17.45838740     3.20277020
H          -0.66580220    18.30587580     3.14747240
O          15.76607700     1.39265910    22.73187070
H          16.17593190     0.92156680    22.00638960
H          15.52689270     2.24212530    22.36115460
O           8.30130960    16.95751570     5.76359750
H           9.06739810    17.03442760     5.19489190
H           8.64920520    16.62266350     6.59008030
O           1.49907160    15.82720570    23.57438280
H           1.45429000    15.96158220    24.52104570
H           2.43566250    15.82489400    23.37683870
O          12.20914460    13.39524270    22.92677120
H          12.68540760    14.20690350    22.75180630
H          11.89287950    13.49199100    23.82501790
O           0.44919230     6.68484210    18.81824680
H           0.59967520     6.07272150    19.53858950
H           0.09235080     6.14323430    18.11428830
O           6.56303790    22.02237130    13.69462300
H           6.51797630    21.26626210    14.27986050
H           6.10528610    22.71809580    14.16649340
O          13.71842000    17.23173330     7.18522930
H          13.81230260    16.31681440     6.92000960
H          13.70499610    17.71963120     6.36181640
O           9.80665870     6.04327390    20.60230260
H          10.17312530     6.65953540    21.23645970
H          10.56186490     5.54710100    20.28653530
O           0.29710870     5.17616180    10.38221650
H           0.44350700     5.66079430     9.56985570
H           0.12975940     5.85299490    11.03805450
O          11.08031940    12.92737770    18.48954580
H          10.37154100    13.47680090    18.15488620
H          11.88005070    13.35661700    18.18554690
O          17.80872540     1.64962570     5.15252020
H          18.63284110     1.70083130     5.63671590
H          18.05550190     1.81128970     4.24191670
O          16.59999850    10.90994640    17.61608120
H          16.67266460    10.01219940    17.94012450
H          15.78444860    10.91845700    17.11504360
O           9.93012140     5.39806180     1.36446860
H           9.48343470     5.60422420     2.18556500
H          10.84427830     5.26605510     1.61571310
O           5.94610550     0.96714580     3.68391990
H           5.72816470     1.41862190     4.49933620
H           6.41124770     1.62266340     3.16413970
O           2.06721280    16.30546000     4.01008130
H           2.54070450    17.09392740     4.27532860
H           1.88928750    15.84555050     4.83048250
O           0.61556230    12.85869980    14.42092040
H           0.26825650    12.04919820    14.79550840
H           0.53024020    13.50349040    15.12319850
O          13.20746520     0.29964770    14.32690720
H          13.71585270    -0.40887990    13.93223860
H          12.35441210     0.25150190    13.89538100
O          11.24823280    22.86173060    10.25171380
H          11.37862780    22.25517080    10.98062610
H          11.78664880    22.50592420     9.54478930
O           5.69833850    18.36058430    14.61494920
H           6.05399130    19.02745060    15.20234390
H           4.93163060    18.01985360    15.07570170
O          12.08960440    22.02996440    16.57363700
H          12.39120770    22.60278320    15.86854840
H          11.44335460    22.55338480    17.04758260
O          16.75266270    12.78522680     8.63269900
H          17.70628740    12.70259280     8.63428780
H          16.46293260    12.20256040     7.93071080
O           0.22023360    14.41511540    16.56878850
H          -0.72213010    14.54727170    16.67231180
H           0.58320210    14.58811000    17.43744280
O           4.22693590     9.99021150     4.36759470
H           4.33313890     9.10277940     4.71025660
H           4.86506460    10.51256750     4.85356620
O           9.07416340     1.43541420     8.03103640
H           9.03981400     0.52958380     7.72358990
H           9.48489760     1.91671260     7.31278710
O           6.65788650    20.61265370    15.85514930
H           7.29515460    21.30450440    16.03252600
H           6.81066560    19.96431350    16.54257010
O           9.16232400     0.79617200    20.17890170
H           9.67774490     1.34137620    20.77331160
H           8.73185830     0.15996250    20.75001340
O           3.45599010    13.52434920     5.67172430
H           4.32892040    13.13680270     5.73522190
H           3.34427310    13.71157070     4.73968410
O          15.64742090     2.87273480     6.35870650
H          16.52733420     2.77640700     5.99441720
H          15.32153610     1.97621330     6.43795680
O           6.63480420     5.91658970    17.29957200
H           5.74156860     6.07031060    17.60735890
H           7.13485380     6.66109560    17.63407710
O          11.50931450    15.13834190     1.03038690
H          12.25375840    14.53851320     0.98304280
H          11.25513270    15.13224980     1.95320030
O           1.77419600    21.45484730    12.40613460
H           1.45359650    21.13937950    11.56119060
H           2.56341460    20.93881230    12.57067580
O           0.36984630    21.17267420    20.26263240
H           1.25865390    21.47809410    20.08105280
H          -0.19557980    21.79789920    19.80918120
O          13.88850980     1.42148670    20.50241090
H          13.65040210     1.91195760    19.71566200
H          13.24824520     1.69613830    21.15880970
O          12.24753480     2.03089500     6.34274200
H          12.18195720     2.03888200     5.38782500
H          13.09937000     1.63235460     6.52099510
O           7.41147040     4.96223640     7.77934740
H           7.09079500     4.28036690     7.18904780
H           7.57830290     5.71315960     7.20968820
O           0.07518910     3.59566090    24.41080280
H           0.62798740     4.37706180    24.41850660
H           0.61847690     2.92194820    24.00192450
O           3.63692830    18.69772910     4.79636290
H           4.51675990    18.94955640     4.51580720
H           3.19661590    19.52801700     4.97796440
O           9.09776970    17.22444530    10.83714960
H           9.93702130    16.76803780    10.77730270
H           8.57557870    16.68829730    11.43388460
O          11.54535100     5.03409860    13.48609450
H          11.70587250     5.88213350    13.07220750
H          12.41374780     4.72573850    13.74499990
O          17.11482810     8.22573570    18.56790350
H          16.95409580     8.00274470    17.65102200
H          17.95152090     7.80836110    18.77277950
O          10.41403480     2.97670440    15.04522420
H          10.73389910     3.84452700    14.79864600
H          10.72617530     2.39947490    14.34837060
O           8.98842330    13.28921320    10.77260880
H           8.22427270    13.76540760    11.09748550
H           9.60208700    13.97397990    10.50663090
O          10.68528840    19.14237790    16.46070480
H          10.53706170    19.21285820    15.51768020
H          11.09870530    19.97163580    16.70081140
O           0.51857040    15.60389900     9.17090130
H           1.09271410    14.98486520     8.71991630
H           1.02698250    16.41371920     9.21492860
O          12.28292560     3.98675130     2.26653390
H          12.67012790     3.11899830     2.15116120
H          13.03291990     4.57038590     2.38103200
O           1.06017640    10.88242910     3.27409270
H           1.32647820    10.10738950     3.76869110
H           1.86894210    11.38051990     3.15562060
O          16.89360050    22.15179250     2.28901480
H          16.97527890    22.63023570     3.11403180
H          16.79616740    21.23648070     2.55158330
O          18.54291920     2.63306880    15.24132060
H          18.21472930     2.90246270    14.38344480
H          18.33979230     3.36984040    15.81763550
O          13.94588180    13.74006840     1.10304450
H          14.09347340    12.94151690     1.60976120
H          14.81628510    13.99260520     0.79505930
O          14.86740780     1.93676750    15.90795040
H          14.97080040     2.75307730    15.41889100
H          14.45998190     1.33454600    15.28540330
O          16.99185940    10.88277440     6.23336030
H          16.60331340    10.01866910     6.09703640
H          17.83934970    10.70281410     6.64030650
O           2.44236870    23.03834340     1.19889070
H           2.00065160    23.01038550     0.35016440
O           8.96431350    13.91494560     7.80724140
H           9.71295260    13.85069470     7.21424580
H           9.35441110    13.99484060     8.67768570
O           2.92062400    20.90018460     8.00609970
H           3.07434490    19.95894620     7.92441460
H           3.77962210    21.26568600     8.21767140
O           4.57812640     4.43544480    12.16383840
H           5.32352300     4.01778600    12.59532070
H           3.82326940     4.18968010    12.69864940
O           8.37070940    23.05045510     3.12791160
H           7.43913170    23.27036290     3.13387580
H           8.61394600    23.01323700     4.05294230
O          10.81943610     9.28473660    23.56956100
H          11.05198290     8.65252490    24.24960710
H           9.86291980     9.26381490    23.54007530
O           0.91853220    23.06772610    23.20798490
H           0.02564610    23.12174610    23.54867170
H           0.85641060    23.41318510    22.31746100
O           8.22052670     8.94256970    23.43639950
H           8.06415840     9.64477350    22.80498120
H           7.99563740     8.14109610    22.96385770
O           3.76562210    19.41542630    12.44592000
H           3.20281290    18.67282100    12.66504570
H           4.50612070    19.34054370    13.04782200
O          15.36010740    15.97842030    19.16645430
H          14.57468030    16.43959240    19.46083070
H          15.61994740    15.44457050    19.91726680
O           8.65680890    22.39929580     8.77070140
H           7.85678530    22.14360620     9.22985170
H           9.19756320    22.81259540     9.44375510
O           7.17011500    22.78233340    11.13028050
H           6.99517300    22.32466320    11.95257280
H           6.41549830    23.35921860    11.01201150
O          10.74108030    12.35694120     4.19353010
H          10.98581410    12.55936620     3.29055690
H          10.61910340    11.40757750     4.20154190
O           5.14920470     1.36695850    20.89215280
H           4.74923900     1.61927690    20.05992890
H           5.69784260     2.11422610    21.13051800
O          10.21049310    14.96314050     3.55206490
H          10.28061870    15.77635770     4.05205440
H          10.42610070    14.27537350     4.18192390
O           1.18337180     2.34108520     6.38304520
H           2.07318950     2.16310950     6.07844540
H           1.10108690     3.29371140     6.33871840
O           6.34342380    19.55949210     4.47835540
H           6.70148900    19.86083220     3.64336110
H           6.40901570    20.32023430     5.05559160
O          13.07285790     7.83909990    17.87540440
H          12.84982680     8.76603890    17.96068950
H          12.79319380     7.60592840    16.99016380
O          14.35903550    23.84240340     6.69964220
H          13.96146390    23.08126640     6.27674870
H          14.34964750    23.62997630     7.63292600
O           6.57928470    14.28411670     6.87188050
H           6.60612960    15.04105570     6.28660010
H           7.45871350    14.24030690     7.24727060
O           3.59621860    15.93489460    17.53279880
H           3.24092460    15.04803090    17.47387310
H           2.88324070    16.49893760    17.23321720
O          17.62800600     4.19390010    12.85656260
H          16.96155170     4.42173000    13.50476550
H          17.13343430     4.01855370    12.05601020
O           1.18738350    22.11875920    17.55305670
H           1.01734080    23.01183700    17.25350380
H           0.49714180    21.59443090    17.14700320
O           4.10064980    14.14654540     0.14880180
H           4.24299380    14.67214580    -0.63841770
H           3.80382900    14.77561950     0.80636980
O          16.60628320    17.11232570     5.80197530
H          16.81913760    16.63252640     5.00152680
H          15.84381580    16.65670200     6.15874200
O           5.95785670     3.16017130    16.66178890
H           5.71165420     4.08211040    16.73692510
H           6.89907740     3.14868710    16.83557890
O          10.43051340     0.74189700    12.49799250
H           9.86263940     0.14731350    12.98811630
H          10.70162200     0.23671230    11.73149390
O           9.14323140    18.41240690     8.49476150
H           9.15171150    17.78214260     9.21512700
H           9.89133640    18.98393820     8.66774460
O           5.92378570    20.53072170     1.77384000
H           5.26040890    19.91465380     1.46299930
H           5.46148630    21.08218770     2.40502740
O           9.41575240    19.74652100    20.11784360
H           9.54626080    19.29008290    20.94902610
H          10.29422660    19.82121850    19.74510190
O          16.91975980    19.77618980    13.20406630
H          17.09035680    19.76017760    12.26232810
H          17.44766040    19.05913930    13.55533310
O           1.82396440     5.52604580     0.54583460
H           1.53329750     6.28027060     0.03310730
H           2.73680040     5.71915250     0.75954540
O          11.16791440    10.18260000    17.66511540
H          10.26712230     9.94135670    17.44922830
H          11.09162240    11.03613280    18.09160610
O           4.77904080     7.04594990    21.19449620
H           4.80097150     7.97925190    21.40591430
H           5.64592840     6.72395900    21.44159890
O          17.23669050    22.37273980    18.72817420
H          17.25926590    23.19989970    18.24699970
H          17.51107220    21.71585270    18.08829500
O          14.40110400     9.66179470     1.05359270
H          14.89421650     8.87002370     0.83872040
H          14.19335940    10.05233000     0.20473670
O           3.49541260    12.13737680    22.46661000
H           3.83615850    11.24474530    22.52431680
H           3.61268970    12.49585720    23.34636500
O          -0.00765330    18.70912360     7.80352690
H           0.93126960    18.71717640     7.61754040
H          -0.35083770    17.99041560     7.27256870
O           7.48445030    11.46197700     7.79929070
H           7.94140910    12.28248210     7.61437890
H           6.93438200    11.65973280     8.55728050
O           0.58316970     9.68686290     7.00962070
H           0.63984370     9.26002120     6.15473650
H           0.28888090     8.99602130     7.60322280
O          14.00006010    15.11965750    10.11975570
H          14.45050810    15.11960600     9.27516650
H          14.58994010    14.64554210    10.70583440
O          15.16350270    11.68129160     2.65323640
H          14.77956100    11.01244930     2.08625220
H          15.83997820    11.21745680     3.14666370
O           4.28605940     5.05604270    15.96237660
H           3.62568000     5.68120860    16.26120380
H           3.78251720     4.29303840    15.67864890
O          13.04577640     2.34011150    17.83721160
H          13.58117200     2.10153650    17.08046530
H          13.05411340     3.29724860    17.84431460
O          12.23552230    18.27592470    13.72068310
H          12.42428300    17.80038260    12.91169450
H          11.45063020    18.78613280    13.52102380
O          14.78577800    20.49774170    10.06302360
H          14.10948180    19.82163430    10.02137850
H          15.47898670    20.17903330     9.48499390
O           0.62011740    12.04977040     8.48586180
H           0.61477620    11.32443430     7.86128900
H           1.48289880    12.45058250     8.38007830
O          15.57426260    18.96022220    18.35784720
H          14.81810860    18.44798280    18.64433290
H          15.55797000    19.74122240    18.91102600
O          12.45261380    20.34968380    18.68151090
H          12.38182350    20.85626980    19.49057770
H          12.70253660    20.99234770    18.01761820
O           4.15439030    21.40872380    21.61518480
H           4.30685570    22.25486370    22.03594020
H           3.76367810    21.62870790    20.76949880
O          16.41119770    19.67667580     5.11923030
H          16.62300110    18.92779540     5.67649940
H          17.07178880    20.33347320     5.33938500
O          18.08621030     1.40532860     2.18826290
H          18.17215160     1.90703000     1.37762070
H          17.99886510     0.49688560     1.89958670
O          15.70960710     4.60812850     4.39234260
H          15.85169320     3.95661230     3.70563220
H          15.29179000     4.12061980     5.10226920
O           3.86713700     1.67685880     6.33018780
H           4.81432910     1.68230330     6.19224170
H           3.76378770     1.63319580     7.28078940
