923
Conf 1. Box X: 17.356 0.000 0.000 Y: 0.000 23.638 0.000 Z: 0.000 0.000 22.795
N           7.35726070    13.05970190    10.07958600
H           8.23013020    12.56320000    10.26666160
C           6.11256360    12.43341730     9.74498080
C           5.20559360    13.49395470     9.21976280
C           5.99620150    14.56046100     8.95290570
C           7.36428980    14.31524850     9.48302080
C           3.70454360    13.34922120     9.09518240
H           3.23760800    14.33375930     8.92058940
H           3.40407300    12.97109600    10.08743480
H           3.35863400    12.73924060     8.24306770
O           5.83350850    11.28548530     9.82016090
C           5.63434930    15.86181740     8.58117200
H           6.12550120    16.61759190     9.20645240
C           4.63368990    16.18373870     7.75301790
H           4.30289080    17.21806140     7.61732290
H           4.09923650    15.41270830     7.18950840
C           8.55482670    15.08963970     9.36213300
H           8.28106980    16.02798650     8.86417390
N          10.29783630    13.93244550    10.72180180
H           9.57719800    13.51331330    11.30669500
C           9.87877560    14.96710110     9.87581060
C          11.09393690    15.59073730     9.41284850
C          12.15979770    14.94917580    10.02444550
C          11.72126670    13.94415470    10.91503330
C          11.09451960    16.69535830     8.40371610
H          11.53783130    16.37654110     7.44473080
H          11.55097680    17.59434130     8.85238460
H          10.07910160    16.98736570     8.08515170
C          12.51858140    13.04555420    11.59213450
H          13.59031300    13.27647590    11.60781960
N          11.11792280    11.05227180    12.38799480
H          10.20044330    11.39765260    12.11224460
C          12.29140660    11.79208850    12.27404120
C          13.29497430    11.01643940    12.87105080
C          12.74943830     9.83438590    13.39801880
C          11.36034390     9.83797840    13.04218670
C          13.38975050     8.94566350    14.41254810
H          13.45364190     7.93599410    13.97173880
H          12.84028430     8.93798920    15.36955070
H          14.38885310     9.32487010    14.68791200
C          10.36594100     8.88391300    13.35310270
H          10.74600600     7.92080780    13.71387390
N           8.15360550     9.94555850    13.01589200
H           8.53869150    10.86109450    13.25446990
C           8.96393200     8.86062050    13.25799940
C           8.07250400     7.73621850    13.63192940
C           6.78356740     8.19866560    13.53642370
C           6.76389070     9.66110610    13.32783030
C           8.42023560     6.37073370    14.03026200
H           9.38887600     5.96295450    13.69369790
H           7.62018730     5.75678350    13.58214000
H           8.54169560     6.32589200    15.12619110
O           5.90758990    10.45920280    13.65287970
C           5.58491950     7.41859100    13.89536760
H           5.75267740     6.49086000    14.45514490
C           4.34421680     7.68932340    13.51401040
H           3.56977770     7.00009440    13.86454390
H           4.02361870     8.55485920    12.92601870
H          14.36003210    11.23545360    12.92040920
H          13.16388230    15.33323760     9.85396860
O          15.51056480     0.61838240    13.25873280
H          15.05922890     0.78614630    12.43145850
H          16.15384860    -0.05828260    13.04768280
O          12.71376420    19.80002590    16.64517020
H          11.82102010    19.59466170    16.36756710
H          12.61844440    20.56652640    17.21052550
O           6.14125250    20.95016100     0.84300200
H           7.02033040    21.11702350     0.50298850
H           6.23319720    20.15197940     1.36327710
O           3.93636700    13.41350750    22.87630460
H           3.68860390    13.81168460    22.04185870
H           3.94633510    12.47287850    22.69924740
O          16.08818050    12.68788050     2.55636620
H          16.79296490    12.67388820     1.90882030
H          15.29390340    12.51901720     2.04957340
O           4.00579550     2.66506410    21.22437290
H           4.64074420     2.26928400    21.82139020
H           4.53667830     3.18208890    20.61850170
O           7.62086250    18.00357440     4.55275300
H           7.93273400    18.19964030     5.43622680
H           8.37542060    17.61054990     4.11411330
O          10.50734040    19.91813850     8.06718350
H          11.12968540    19.97594830     8.79215050
H          10.87197110    20.49066160     7.39228060
O          12.76403810    21.61701200    18.87770460
H          13.58273510    21.68450930    19.36903950
H          12.36628440    20.80267520    19.18573380
O          14.52343270     7.79041480    21.36139680
H          15.26449580     8.38470550    21.24359890
H          14.92152400     6.95996430    21.62237170
O           5.41548920    13.01337430    16.00611880
H           6.35937310    13.17031480    16.03229140
H           5.14687110    13.31294060    15.13759420
O           7.75362920     0.74666480    11.10142330
H           8.34179590     1.32234800    10.61266990
H           6.96779440     1.27380360    11.24571510
O           5.10109140     1.11389910    11.88777640
H           4.69828650     0.81574180    12.70330240
H           4.92203860     0.41231280    11.26171880
O          11.76867290    19.33956910    19.82287980
H          11.79900460    18.50181010    20.28490640
H          10.90046020    19.35979840    19.42034910
O          12.81998350    11.08381180     5.60694310
H          13.08257200    11.99409870     5.47035460
H          13.55613990    10.68983170     6.07500840
O          15.52612500    20.08229260     9.09155370
H          16.00415800    20.51104740     9.80140400
H          14.61476900    20.34279630     9.22497180
O          16.03053470    15.60090160     3.78089050
H          16.71726230    16.20545390     4.06222870
H          16.30345540    14.75092890     4.12628030
O           5.64374260     6.16044140     7.51993610
H           5.59262610     6.37616780     6.58876470
H           6.21725890     5.39499140     7.55732630
O          13.47060590     4.67531350    14.49220470
H          12.56636810     4.94467830    14.65353780
H          14.00058560     5.37857530    14.86740680
O          14.43113140    17.91427040    17.74892230
H          14.47386170    18.71833230    17.23134040
H          13.50336070    17.81632800    17.96312140
O          11.00422570     2.73145910     5.54909320
H          11.37153910     3.60277990     5.40038780
H          10.12167260     2.77763530     5.18139980
O           9.42129610     3.21907760     9.47041030
H           9.42509750     3.48896360    10.38876720
H          10.30509470     2.88593750     9.31501290
O          14.33565520     3.30298780     3.04196190
H          14.65927790     2.74523780     2.33456180
H          13.46485610     3.57557200     2.75275710
O           7.63586520     4.27608630     7.19768760
H           8.18441300     4.65012650     6.50817970
H           8.23938850     4.11510130     7.92299800
O           5.53091140    21.36187930    11.65158560
H           5.09529070    21.97386170    11.05833630
H           6.46506740    21.50367550    11.49836160
O          12.67355630     0.68252100     5.89473720
H          12.01023770     1.33697750     5.67581460
H          13.32443810     1.16303220     6.40629720
O          11.77492620     5.41535140     4.74022100
H          11.58268930     6.28248210     4.38334420
H          11.81683250     4.84450010     3.97301550
O          15.50082020    20.28649330     5.12041760
H          14.77507020    19.67171860     5.22798780
H          15.50092600    20.49585720     4.18639470
O           3.62593250    13.83013920     2.83749180
H           4.47661350    13.73513410     3.26591680
H           3.72919700    13.38207340     1.99796490
O          11.11946010     9.80333040    22.64594840
H          11.43515680     9.70158860    21.74805450
H          11.88994030     9.64183710    23.19047740
O           8.94531630    18.93994900    14.30585290
H           9.47695920    18.63925170    15.04285240
H           9.21847340    19.84689330    14.16777040
O          14.19751740     8.49510570     7.07933330
H          14.09684180     8.03941350     7.91506050
H          14.49879650     7.81886390     6.47257140
O          15.16768650     1.97311040    16.80753900
H          15.16656490     1.04938500    16.55661770
H          15.17256640     2.44717840    15.97599410
O          16.93898960    18.79556270     3.04580860
H          17.82894130    19.01337810     3.32289030
H          16.68768500    18.05970760     3.60401650
O          13.24114890    13.76558880     5.83895870
H          12.69311620    14.40355490     5.38191320
H          12.79525470    13.62109380     6.67354300
O          17.20000270    22.70653150     0.28354040
H          16.32871630    22.88033490    -0.07267030
H          17.23439030    23.21738430     1.09229240
O           8.20899300    18.37178040    21.20648960
H           7.29736330    18.15440750    21.40119740
H           8.46755600    17.74057770    20.53495220
O           9.22871490    -0.02542210     4.70632460
H           8.88281350     0.85953150     4.82225990
H           8.61653800    -0.44453120     4.10149430
O          10.34728050    18.32614140    16.63014600
H           9.61973000    18.65787700    17.15631290
H          10.80583760    17.71919440    17.21115490
O           7.94009400     9.22103500     3.74244670
H           7.68222430    10.00686740     3.26057290
H           8.21528150     8.60387520     3.06449630
O           5.14525650    18.80407140    17.11459160
H           4.80029250    17.91717150    17.21774100
H           5.29240370    18.89585300    16.17323300
O           5.77775530     7.42901710     4.79309080
H           5.05951690     7.59523770     4.18257000
H           6.40192410     8.13536930     4.62662460
O          11.33137230    21.59902570     5.68375250
H          10.69291400    22.22523880     5.34249110
H          12.16381070    22.07115750     5.66452600
O          16.36697200     5.41264870    17.60706710
H          16.79346850     6.01822380    18.21337700
H          17.02463340     4.73730660    17.44085120
O          11.31460670     9.17804430     8.64276220
H          11.40979770     8.70466520     7.81627420
H          10.94668580     8.53330330     9.24705980
O           5.69560720    20.86050800    20.17791560
H           5.81897500    21.63035010    20.73321150
H           5.49721770    21.21860310    19.31267550
O          11.79036520     7.74015430    20.23092270
H          12.51383970     7.56297780    20.83210750
H          12.17827800     7.66101930    19.35943220
O           0.93550910    17.35306740     9.61502650
H           1.05559550    17.62017820    10.52632430
H          -0.00645320    17.43213270     9.46440220
O          13.90145110    20.11856270    21.54160310
H          13.97778030    19.52584840    22.28933140
H          12.96921440    20.11147310    21.32453920
O          10.41435240     2.99129750    20.50709720
H          11.06502060     2.57346250    19.94293790
H          10.89497090     3.69083260    20.94968990
O          16.84557340    19.05009080    13.98058220
H          17.21691320    18.86614610    14.84342860
H          15.91075040    19.17527010    14.14388280
O           5.91202830    17.53419880    22.42062380
H           6.03665490    17.20251850    23.30983160
H           5.30218080    18.26512910    22.52091220
O           7.10209180    13.03155140     5.80091430
H           6.51388740    13.19037340     6.53917120
H           7.54392770    12.21089740     6.01895140
O           2.12751560     4.96226980    19.31388660
H           1.78491990     4.21372080    18.82548710
H           2.86697030     5.27151870    18.79062460
O           9.73565960     3.59169580    17.51630210
H           9.58685210     4.52480410    17.66926380
H          10.28898620     3.31453680    18.24653820
O          12.73904130     2.27832340    13.19075010
H          13.25163560     2.86463760    13.74727060
H          12.70754530     1.45399620    13.67626480
O          13.65475650    22.67052840     1.77780500
H          13.39842130    22.98995780     0.91265260
H          13.38177110    21.75310900     1.78495560
O           5.86054990    22.18547630    15.25755790
H           6.52854970    22.65744210    14.76030920
H           5.91827630    21.28411100    14.94063190
O           0.61705770    15.75574780    14.93266200
H          -0.23108490    15.56637670    14.53138260
H           0.45196710    16.51166530    15.49618910
O          15.60666750    21.59012790    19.89769740
H          16.18394090    20.84569360    19.72798920
O           9.86480430    14.28775690     6.30573130
H          10.37993720    13.79250140     6.94259170
H           8.95484540    14.09822650     6.53438900
O           3.58824970    21.10467720     7.13301750
H           2.89064620    20.52486610     7.43863150
H           4.12807940    20.55246930     6.56743620
O          14.86028770     0.02059250     4.08168270
H          14.54104140    -0.18489180     3.20299650
H          14.07439420     0.26291610     4.57146070
O          11.82690430    16.91190910    18.40370750
H          11.96808620    16.07355120    17.96387290
H          11.91878700    16.71209910    19.33530040
O          12.09930520    16.89776420    21.12049100
H          11.38207630    16.88792610    21.75430300
H          12.76736070    16.33088300    21.50595280
O           1.45735720    12.53426360     4.22526450
H           0.72914810    13.14870640     4.31693740
H           2.21897170    13.08895780     4.05647610
O          15.16296100    15.64363960     8.45144650
H          15.29115870    16.40819360     7.88997320
H          14.82098290    14.96970840     7.86399600
O           2.03073170    16.81192590     0.25979770
H           2.20214750    16.97163010    -0.66828760
H           2.11675790    17.67213630     0.67073600
O           0.69513540    12.07134250    19.97301670
H           0.32050340    11.99143120    19.09580800
H           1.54800740    11.64148240    19.90929030
O          17.34946440    18.08078380    16.51982880
H          16.58971600    17.63994410    16.90019040
H          17.61907200    18.71190640    17.18708420
O           3.14798260     4.12902550     8.34858320
H           2.89867710     4.06626270     7.42655370
H           2.97381040     5.04077670     8.58226200
O          17.26700400    12.79063990    22.48872180
H          17.39976690    12.72323130    21.54317280
H          16.96289440    13.68803120    22.62450980
O          10.22624110    15.95876410    13.84880640
H           9.95321080    15.19957540    13.33371450
H          10.50073430    16.60406300    13.19729140
O          15.00105380    16.89938160    11.10084820
H          14.48933600    17.69733620    10.96800610
H          15.17444230    16.57607840    10.21674250
O           5.52706150    15.87226010    16.58123400
H           4.82965610    15.68878650    15.95179460
H           6.33185390    15.83620930    16.06428150
O           1.81900190     1.13438560    11.96145340
H           2.54871270     1.02878070    12.57186510
H           1.60140040     2.06540680    12.00707240
O           0.92177020     0.19561390    16.39565660
H           1.68498730     0.49565400    16.88932420
H           1.17307110    -0.66773300    16.06746100
O           3.14995340     6.43811610    21.48493770
H           3.17918320     5.63020230    20.97244070
H           3.35408640     7.12904740    20.85471920
O           7.55154510    22.60363580     2.82150150
H           7.24700400    23.35196880     2.30819560
H           7.25156690    21.83854480     2.33070660
O          -0.05193720     0.56711170     2.72114180
H          -0.70882050     0.16084570     3.28654720
H           0.78621660     0.27560110     3.07996110
O           3.39694170     1.41733590    16.72988510
H           4.02801750     1.85333440    16.15727620
H           3.90883420     1.15573870    17.49523740
O           3.75118710    17.78613850    19.84276010
H           4.28840730    18.55872340    19.66743660
H           4.37747190    17.11603550    20.11654850
O           0.46175680    13.06441500     9.85996150
H           0.75958460    13.49092960     9.05645850
H           0.73803030    13.65468690    10.56101990
O           3.48690320     9.94905470    21.92993740
H           4.19693420    10.00093460    22.56977840
H           2.70114210     9.79949000    22.45571520
O           3.36629220    14.78786660    14.86085220
H           2.56399130    15.28258710    15.02757640
H           3.66801240    15.10111900    14.00816820
O           7.08008810     1.81442860    17.01510810
H           7.90135000     1.36523120    16.81515120
H           6.87918660     1.55697610    17.91487880
O           7.61772440    15.78401470    15.04324440
H           8.45543190    16.20998570    14.86151790
H           7.68851380    14.92712780    14.62257000
O          16.99046520    15.43232350    22.25569530
H          17.67239570    15.77802940    22.83162310
H          17.01894380    15.99822140    21.48421670
O          11.34140490    23.14308550     9.06261540
H          10.38683510    23.18824580     9.00794890
H          11.63680550    24.02177430     8.82412240
O           6.25786690    18.61434940     2.25603940
H           6.59951500    18.35492320     3.11172960
H           5.56567720    17.97935300     2.07196450
O           6.84712550     4.70008560    17.91597560
H           6.94351820     4.31825830    17.04353900
H           7.68976780     5.12034420    18.08793070
O          14.75614740     6.77729650    15.83662700
H          15.59965130     7.15562200    15.58842850
H          14.94745920     6.25646500    16.61660390
O           2.15394950     0.77524930    19.55393220
H           1.52982450     1.46702440    19.33450890
H           2.76143100     1.18686850    20.16856000
O           0.03844630     2.50150420     5.77803330
H           0.74462500     3.14710570     5.80524020
H           0.39901530     1.77330920     5.27211520
O          13.40218640     8.21603680    17.96003530
H          13.94027610     8.94422340    18.27057270
H          13.86511040     7.88786220    17.18916890
O          11.32034780     7.77055070     3.34884000
H          10.38761140     7.61833860     3.19696880
H          11.64644430     8.11004540     2.51539130
O           3.21523070    20.73039630    17.67264180
H           3.63189860    21.30447770    18.31533240
H           3.80894570    19.98325540    17.59838680
O           0.47817980     4.68231530    13.78084660
H           0.05699910     4.10156250    14.41453740
H           1.22971520     4.18313500    13.46108630
O          13.34834190    17.76306920     3.77701310
H          14.26622960    17.69955440     4.04098460
H          13.24746420    17.09535410     3.09862350
O           1.06497990    20.31019400     0.78843270
H           0.84849070    21.24250220     0.77556000
H           1.39618690    20.15340610     1.67271200
O           5.80502270     1.60192610    22.57742880
H           6.18925000     2.24048300    23.17813490
H           6.53523970     1.32344010    22.02474400
O           1.55492130     3.76488880    16.72016910
H           2.15062830     3.01590280    16.70055580
H           1.53737970     4.08069090    15.81673620
O          16.74975400     5.18274400     7.53239250
H          17.53416440     5.54088400     7.94792650
H          16.82790570     4.23591660     7.64918900
O           8.44681360     9.02075860    22.83852200
H           9.37745760     9.19330020    22.69581990
H           8.01050950     9.83322050    22.58205220
O           0.90894900    19.82295040    18.52547450
H           1.66907270    20.30093570    18.19385340
H           0.99885880    19.86096570    19.47768400
O          14.09101390    19.97763630    14.14364240
H          14.58620740    20.62553020    14.64488700
H          13.41548540    19.67181590    14.74892520
O          14.11671920     2.40157560    10.68493840
H          14.53890900     3.23348520    10.47066400
H          13.62321570     2.58249070    11.48491100
O          13.28545000    13.02697560    19.68309780
H          13.87159630    13.74528310    19.44498440
H          13.25607870    12.47315690    18.90293500
O          17.24515720    20.57223130    11.12516210
H          17.43333630    20.92532730    11.99472710
H          16.91039470    19.69108770    11.29175570
O          11.90877440     2.20434470     9.01846310
H          12.21300890     2.86588670     8.39714620
H          12.64836980     2.07534580     9.61225610
O          16.51731870    13.31150910     5.28710030
H          15.81525230    13.13770680     5.91409970
H          16.13759990    13.09363650     4.43587920
O           0.38980650    10.08225920     3.34949660
H           0.99744930     9.43660640     3.71023800
H           0.68321610    10.91722300     3.71415730
O          14.53269200     4.74118900     9.42129610
H          13.87849620     4.50900130     8.76224520
H          15.36917970     4.49827480     9.02441600
O          15.12860770     9.61769200     2.89218000
H          14.65319920     9.93175790     3.66132350
H          16.00105860    10.00238040     2.97628930
O          17.37210270     2.19684670    14.80287550
H          17.65963170     1.60589960    15.49882130
H          16.82516860     1.65211460    14.23686980
O           9.87081620     2.76547120    12.33237740
H          10.80884460     2.74622440    12.52202030
H           9.46432970     2.34777380    13.09167290
O           3.19634290     8.32971380     3.83664300
H           2.56268050     7.80596160     4.32693620
H           3.03626890     8.10344310     2.92045000
O           6.41477390    19.60173420     8.26185230
H           6.47571710    20.52978520     8.03549100
H           5.75377040    19.56675530     8.95328810
O           8.90841670    12.17235760    18.17933850
H           9.00275710    13.06475450    17.84623150
H           9.70859530    12.01832490    18.68155290
O           3.57288810     6.30874110    17.04545780
H           2.84304360     6.55806490    16.47854040
H           4.35512260     6.53522920    16.54242320
O           8.27468590    18.63329120    10.69982340
H           8.03827380    18.02934270     9.99584390
H           8.21584420    19.50127220    10.30060010
O           4.85161540    23.07846640     9.81344510
H           5.37294050    22.94480510     9.02187250
H           4.36801240    23.88776400     9.64792060
O           8.64458180     9.30315690    18.69505690
H           9.32070450     9.96082210    18.85805130
H           7.94991450     9.78102110    18.24193950
O           6.91210270    13.20675280    20.03555680
H           7.18956230    12.66684530    19.29545590
H           6.48994680    13.96583750    19.63330650
O           2.37813690     7.74027820     1.43461950
H           2.77693750     7.33052300     0.66696700
H           1.67142400     8.27886100     1.07864730
O          13.75838660    15.89106850     1.79785490
H          13.49400710    15.15911290     2.35514970
H          13.77697370    15.52448940     0.91382590
O           3.73107240    19.05937770     0.39614070
H           4.30614950    19.48370930     1.03289950
H           3.00714490    19.67471120     0.27984390
O           1.56243260    14.93964000    12.01071930
H           2.51494000    14.97030450    11.92115780
H           1.36923070    15.54794790    12.72406770
O          10.34808250    12.52459620    20.55314060
H          10.82802870    13.35109620    20.50040250
H          10.97983650    11.86245250    20.27263070
O           1.99518740    12.27371310    13.27608970
H           2.01528840    13.17539410    12.95546530
H           2.36533900    11.75676920    12.56055550
O           8.18424130    22.32251930    18.42010310
H           8.87521460    22.43238450    19.07333950
H           8.61998270    21.90162850    17.67901610
O           8.56920910    10.85836120     6.46629760
H           8.46036050    10.08369060     7.01790330
H           8.35958000    10.55483150     5.58303210
O           9.10602470     0.40399390     7.44219450
H           9.01984120     0.04534520     6.55891900
H           9.21536920     1.34552260     7.30878070
O          13.50597190    15.12135890    15.00228500
H          12.63216020    14.85953810    14.71222400
H          13.44586370    15.13944720    15.95742510
O           8.99179270    14.76798440    21.36761860
H           8.26621630    14.16220000    21.21663090
H           8.99506570    15.33476920    20.59627340
O          14.74873540     3.34185930     5.74611620
H          15.69237520     3.18382910     5.77444080
H          14.51082520     3.20754790     4.82873340
O           8.04920670     3.59486480    22.19505880
H           8.64236550     2.90436860    21.89906880
H           7.83060840     4.08014150    21.39947510
O          13.02786160     4.58816810     7.23166420
H          12.78645230     5.28062300     6.61647270
H          13.61369900     4.01847220     6.73319390
O          15.72173690    15.30932520    13.61942200
H          14.81022070    15.44752790    13.87684920
H          15.78099920    15.68081000    12.73924060
O           8.10971830     6.90197610    20.32503700
H           8.12248040     7.75648120    19.89388660
H           7.41906210     6.97627930    20.98360060
O          10.72342400    18.36992840    12.43268590
H          10.15055470    18.56623270    13.17398070
H          10.12443160    18.19461250    11.70694260
O           1.85576590    21.33120540    15.36227230
H           2.12676720    20.85222820    14.57909300
H           2.22594140    20.83055110    16.08928490
O          15.34806730    10.97761060     6.89589500
H          15.58832170    11.13882640     7.80831960
H          14.98072810    10.09370330     6.89753250
O           4.93863580    19.42857170     5.65804000
H           4.40361120    18.67541500     5.40756940
H           5.69397930    19.04749300     6.10577680
O           5.23446890     4.82870670    20.14760400
H           4.89816380     5.70357080    19.95332530
H           5.92641450     4.68908070    19.50111390
O           7.26499800     8.97594930     8.73993490
H           6.51004120     9.45786380     9.07761960
H           6.90378520     8.13902660     8.44784360
O          13.15287590     0.06583670    22.16540720
H          12.92646410     0.98173580    22.00385860
H          14.00224690    -0.04964560    21.73941990
O          -0.14755640    10.90656850    13.77766420
H          -0.42725380    10.96172430    12.86390400
H           0.64684090    11.43908600    13.81754490
O           2.99510620     3.55675510    13.21029470
H           3.65904640     3.71080160    12.53822040
H           3.46392180     3.10268120    13.91048150
O          10.06939600     5.16907840     0.66954960
H           9.41880230     4.50251050     0.44899140
H          10.56345940     5.29865980    -0.13998260
O          14.97581580     5.33799550    22.10250660
H          15.90504070     5.26457830    21.88483240
H          14.89423940     4.90650080    22.95302960
O           8.59765530    21.10886570    22.08291820
H           9.55390830    21.10471340    22.12528230
H           8.37889480    20.35491750    21.53525160
O          14.81554220    18.50563620     1.24369200
H          15.62909220    18.69753460     1.71010550
H          14.64243600    17.58354760     1.43347700
O           3.20613880     0.57235990     1.47298780
H           4.04011920     0.96106680     1.73683320
H           3.44990560    -0.13599860     0.87713590
O           5.40243670    13.07137580    12.97068600
H           6.31457610    13.21878240    12.72067640
H           5.33572150    12.12341590    13.08536820
O          15.43386460    18.01510810     7.16387610
H          15.57746120    18.62312130     7.88908670
H          14.58668520    18.27218250     6.79996400
O           3.84868000    16.51987270     2.13827350
H           3.14379550    16.44900130     1.49457600
H           3.96528240    15.62774180     2.46497420
O          14.24533940    10.05703930     9.82853130
H          14.64231780     9.18604090     9.82765870
H          13.43005850     9.94916250     9.33872320
O          11.05212500     9.04478840     5.88376520
H          11.70423130     9.74395280     5.83730170
H          11.17672060     8.54697510     5.07574940
O          17.15266800     2.41953660    18.62346840
H          17.74372100     2.67076130    17.91369820
H          16.31341930     2.26076100    18.19140050
O          12.70959950    20.09306910     1.68906750
H          13.49217130    19.54680060     1.61554490
H          11.98473830    19.50155830     1.48677220
O           1.71023390    21.96533390    21.04559330
H           1.01510690    22.22424320    21.65056990
H           1.63977560    22.58580210    20.32013700
O           0.24408330    22.27787020    13.41420840
H           0.64852700    22.67964940    12.64529320
H           0.94458000    22.24933240    14.06591510
O          12.75802710     1.75762410    19.25888250
H          13.24067970     2.58390520    19.23569490
H          13.41794780     1.08948720    19.07359700
O          11.71090030     3.86508560     2.59326620
H          11.25170990     4.22995660     1.83679770
H          11.53105550     2.92581840     2.55246190
O           5.28444390     2.61475060    15.25426860
H           5.94405410     2.29635860    15.87052540
H           5.74481150     3.26740120    14.72668840
O           0.48996060     5.48171190     0.31684840
H           1.34801470     5.05751470     0.32248080
H           0.52381590     6.10033660     1.04649890
O           7.88325360    16.44869800    18.90201950
H           7.89970640    16.47044560    17.94520950
H           6.96578260    16.28743740    19.12218860
O          15.20600990     0.54828020    20.34267810
H          15.51265620    -0.33067830    20.11989400
H          16.00255200     1.03111830    20.56317330
O           2.42586850     1.79460740     4.62668940
H           2.80526970     1.18072750     5.25552850
H           3.09382250     1.88465000     3.94701170
O          10.13140390    12.00463870     3.96703620
H          10.42630480    12.10966300     4.87159970
H           9.55242630    11.24276350     3.99080060
O           0.30189690    17.00117110     5.69612360
H           0.83618150    17.79129030     5.77663850
H          -0.49004760    17.19544600     6.19743680
O          10.51767730    10.60293960    15.96217160
H          11.27588460    11.08392050    15.63049130
H           9.85877800    11.27773000    16.12570000
O           3.60855700    23.64064980    13.90964790
H           3.29107880    23.91754910    14.76916310
H           3.99922230    22.78059200    14.06428810
O          11.53262420     0.89776270     2.38064550
H          12.25229550     0.27280130     2.29272960
H          11.27003570     0.83305310     3.29884600
O           5.60465910     4.11167720     9.37259010
H           6.26940680     4.14684390     8.68476300
H           4.79022260     4.35254720     8.93110750
O           1.99234380     2.72806760     0.27034340
H           2.68392520     3.01380780    -0.32656510
H           2.41633960     2.08381630     0.83726470
O           4.22090670    22.35690310    22.52656170
H           4.94352480    21.75857930    22.71646500
H           3.58306770    21.82035260    22.05591580
O          -0.19772730     8.88639260    15.74875450
H          -0.14927880     9.50162410    15.01706120
H           0.53956210     9.12428760    16.31093220
O          11.52824210    12.61427780     7.78496790
H          11.24379630    12.53760150     8.69570540
H          11.54680820    11.71298790     7.46315530
O           2.45118780    21.35699840    10.41247080
H           1.55381520    21.02399440    10.40459250
H           2.53248410    21.84576030     9.59348580
O          17.04468730    12.29786210    17.22046660
H          16.51319890    12.59033780    16.48005680
H          17.94819830    12.39214900    16.91878700
O           7.10698030    22.35484120     7.84830620
H           7.65919730    23.11870190     7.68156000
H           6.89704040    22.01646800     6.97786900
O          16.82525060    19.26739310    21.73897550
H          16.15232660    19.17711830    22.41370390
H          17.60757260    19.54360200    22.21637730
O          13.61144070    12.21991920     1.19313590
H          13.39645670    11.29291060     1.29642830
H          12.89862630    12.68172740     1.63456500
O          13.13684370    23.58391000    14.38172150
H          12.78564260    23.13487630    13.61278820
H          14.04785630    23.77047920    14.15483090
O           6.05645560    19.37144470    14.60514740
H           6.99154760    19.21830560    14.46956060
H           5.65866330    19.19424060    13.75274370
O           3.99255250     7.58075240    19.23174670
H           4.76742410     8.06949330    18.95436860
H           3.52624490     7.38917640    18.41805840
O           8.91297630     1.55502770     1.67483290
H           8.50880050     1.33217060     0.83625760
H           9.80972860     1.22808300     1.60289730
O          16.26021770    17.21077350    19.73319240
H          15.56740760    17.33225440    19.08397290
H          16.08466340    17.87646480    20.39822580
O           8.43315510    18.52145960     7.03653910
H           7.69626330    18.86678890     7.54049350
H           9.20729260    18.89564320     7.45716950
O           1.22136100    10.51916220     0.70395430
H           0.78238730    10.25869850     1.51370200
H           0.68763800    11.23651890     0.36223570
O           7.18900160     5.05923030     4.11594440
H           6.81336740     4.80364270     3.27344470
H           6.72370390     5.86171010     4.35207320
O          16.93557550     2.83421020    21.25230980
H          17.80386540     2.98762890    21.62482450
H          17.02271650     3.08177380    20.33179470
O           3.24049970     1.51770420     9.40385910
H           2.80325910     2.24651070     8.96352580
H           2.73530290     1.38463850    10.20592020
O           5.18529890     1.82006100     2.99276400
H           5.41663030     2.67547490     2.63084550
H           5.76230960     1.71613190     3.74939440
O          15.43320080     6.52960540     5.71960970
H          15.17052360     5.98220010     4.97962330
H          15.84047410     5.92045160     6.33547640
O           3.21487140    11.11273100    19.70631600
H           3.28412890    10.49096390    20.43077470
H           3.88599730    10.83158020    19.08440210
O           8.10675140    19.40600970    18.57229420
H           7.48455910    19.70716090    17.91016390
H           7.83500050    19.84973530    19.37571720
O           4.20668130    19.32321550     9.75634960
H           3.68904640    20.12442970     9.83596610
H           3.55693910    18.62667080     9.66204260
O          14.19173530     4.13868430    19.08954810
H          14.76157090     4.56309600    18.44814680
H          14.59907150     4.32875250    19.93464090
O           4.43902590    15.79405120    12.36252210
H           5.01275540    15.03548720    12.47044180
H           5.02771430    16.50578690    12.11130620
O           6.48583030    21.60974690     5.32662960
H           5.78555060    20.98908230     5.12509680
H           6.85245080    21.84246060     4.47359660
O           3.29175850     5.21931360     3.48277070
H           3.67241790     5.34453540     2.61348940
H           2.35493370     5.10881040     3.32035160
O           1.76220080    19.33358760     7.83501390
H           1.67228170    18.50542450     8.30649190
H           0.87198840    19.54853250     7.55653140
O           5.16557690    10.21953300     1.58142400
H           5.74773310    10.68729020     2.18019720
H           4.34061720    10.14255140     2.06074310
O           6.78967670    14.30011750     0.66426810
H           5.87436200    14.22645950     0.39407310
H           7.23588850    14.66716860    -0.09888300
O          11.83796410     0.44000930    16.69769670
H          12.41994190     0.25226080    15.96129800
H          12.38360210     0.92540510    17.31648830
O          10.68027020     8.00505920    16.65180210
H          11.60246180     7.96303080    16.90484050
H          10.52585510     8.93050770    16.46224400
O           9.58924670     1.46423920    15.31487560
H           9.32313630     2.29220150    15.71474550
H          10.39784050     1.22776720    15.76928620
O          15.60714530    22.79356000    16.25186160
H          15.78662110    22.26488690    17.02937320
H          16.46446990    22.92079730    15.84561350
O           8.93802930     7.44929410     1.90707170
H           9.25316620     6.65921640     1.46809730
H           8.85362530     8.09539030     1.20588270
O          12.16995810    14.43921570    17.37939830
H          11.29981990    14.11953740    17.14086340
H          12.74022010    13.67657850    17.28235440
O          15.64845750    14.42833330    19.18941880
H          15.99331000    15.24438860    19.55185700
H          16.36821560    14.07562260    18.66618540
O           9.61817360    14.42038440    16.46953960
H           9.72126390    14.13452530    15.56185720
H           9.53007320    15.37181190    16.41247560
O           1.31555800    18.25685880    12.13337040
H           2.12385420    18.48009110    12.59495070
H           0.64037940    18.27199170    12.81170460
O           2.02784610     6.69137570     9.13601400
H           1.57220220     6.60526800     9.97339530
H           2.24953750     7.62076760     9.07842920
O          17.56707570     4.85399820     3.12297270
H          16.86757090     4.76764200     2.47530910
H          17.52000240     4.04689030     3.63541080
O          13.58725830    12.17524620    16.62361340
H          14.07984730    11.42950530    16.96633720
H          14.19840720    12.61458300    16.03224950
O           2.27982330    12.21207330    16.11722370
H           1.89195380    12.70428280    15.39367680
H           3.09809610    12.67082500    16.30750660
O           1.35254420    16.36633680    19.88412280
H           2.05804800    16.99354930    19.72569470
H           0.55458230    16.83812520    19.64557840
O           6.05296330     7.77736950     0.32949600
H           6.99760340     7.89628310     0.23077170
H           5.74931760     8.59276680     0.72844470
O          13.20555110    19.39850810     6.41406300
H          12.97355560    19.85742190     7.22140840
H          12.37148280    19.07320020     6.07533260
O           3.16196870    10.54359440    11.51825520
H           4.08431240    10.35145660    11.34914590
H           2.77544620    10.64670090    10.64865680
O           2.05624180    19.50130650     3.47939870
H           2.61829090    18.96590420     4.03946780
H           2.40339640    20.38872150     3.57000420
O          14.32078650    15.56141380    21.75789070
H          14.39289670    14.82282260    21.15331270
H          15.19981190    15.65768530    22.12433050
O           1.02791360    22.89955900     7.84009790
H           1.88660600    23.13901520     7.49147220
H           0.43718670    22.96854780     7.09008840
O           5.83779480     1.48237070     7.25746350
H           6.10000230     2.37392640     7.02810100
H           5.45562890     1.56244970     8.13140200
O          10.05991080    21.78415110    16.59837150
H          10.73709580    22.45976640    16.63295750
H           9.90884400    21.64408680    15.66360280
O           5.72007560    22.77542300    18.03568650
H           6.66593790    22.68271830    18.14962770
H           5.55274770    22.45281030    17.15016170
O          11.17272190    15.61768630     4.44057320
H          11.26147370    16.55825810     4.59444090
H          10.56085490    15.32143880     5.11443470
O          10.97819710    18.84097290     4.78931470
H          11.00654320    19.79193120     4.89469620
H          11.79358290    18.62576480     4.33647490
O           2.01824590     4.80052710     5.92163610
H           1.57203030     5.64558410     5.97642470
H           2.71296190     4.93781570     5.27762270
O           2.47212960    10.13731100     9.06215570
H           1.92991550    10.32647320     8.29635330
H           3.18316270     9.59316060     8.72368240
O           8.42016410    21.91089820    10.57208820
H           8.25887010    22.76293750    10.97735790
H           8.08343700    22.00205800     9.68072030
O           6.20593880     7.45581050    17.26757240
H           6.95361380     8.05238910    17.23141290
H           6.58414270     6.61265280    17.51712990
O           3.24887180    17.33801080     4.98885390
H           3.63784480    17.00753210     4.17909150
H           2.53315780    16.73060990     5.17606970
O           4.70734020     5.63703970     0.64779250
H           5.17117500     6.47290900     0.69689710
H           4.22007420     5.68148330    -0.17490420
O           0.85449020     7.11375280     4.72157960
H           0.02701370     7.38128570     5.12150720
H           0.67545880     6.24658200     4.35799360
O           8.32547470    23.87227440    21.89945790
H           8.34466270    22.94282150    22.12744710
H           8.89889140    23.94358630    21.13634490
O           4.94358590    10.74906350    17.39481740
H           5.08366820    11.62191100    17.02774240
H           4.69263220    10.21093850    16.64403530
O           3.17736940    20.51947980    12.86444850
H           4.07947160    20.62076000    12.56082730
H           2.64441160    20.88293840    12.15728090
O          17.08313560     2.33634280     8.76041980
H          17.45994760     1.99781350     7.94823650
H          16.98240090     1.56459470     9.31763550
O          16.42488860    22.86027530     6.17031760
H          15.94321730    23.28037640     5.45775890
H          16.24750710    21.92601010     6.06115530
O           9.80734920    21.48557090    13.98799230
H           9.15843960    22.16670230    13.81133270
H          10.59667780    21.78374480    13.53601460
O          14.90719800    10.40738010    18.44301220
H          15.21743490    10.07981870    19.28722190
H          15.67760850    10.81364250    18.04596140
O          12.07684610    22.49351500    12.12270070
H          11.45421600    22.67158510    11.41782280
H          12.88578700    22.25096700    11.67212490
O           6.40991690     3.97911070     1.67607460
H           7.08181480     3.75681730     1.03158150
H           5.86396650     4.63169380     1.23754850
O          14.19747450    11.27167030    21.52430530
H          14.03972530    11.63707830    22.39483640
H          13.75891400    11.87767890    20.92710300
O          15.85308840     2.35482240     0.92003980
H          16.06137280     2.46481660    -0.00772700
H          16.66999240     2.04911950     1.31430210
O           7.78979920    11.26374910    21.76069450
H           8.66925140    11.57765100    21.55031200
H           7.20712520    11.81766700    21.24117850
O          14.77164940     7.46355490     9.85032840
H          14.67029480     6.51553540     9.76536750
H          15.67331410     7.58222870    10.14890770
O           4.34732630     8.59732720     7.80507370
H           4.27597280     7.65544800     7.96000860
H           4.77923730     8.66798110     6.95378490
O           5.89823010    18.26070980    11.79650590
H           5.39605090    18.82506940    11.20867440
H           6.79277370    18.59751700    11.74567510
O          11.41834070    13.85053440     2.26158120
H          11.11665250    13.25658510     2.94892450
H          11.44034960    14.71068480     2.68097160
O          16.60994530    10.76084900    10.79634860
H          16.93756100    11.51700120    10.30938530
H          15.77052210    10.55607800    10.38443950
O           9.17492960     6.26648430    18.00305750
H           9.21769240     6.39483590    18.95064930
H           9.63376430     7.02304700    17.63793560
O          -0.17958080    23.41226770    10.25298690
H          -0.00161370    23.34872440     9.31462570
H           0.66920080    23.61884880    10.64429660
O          11.39101600    10.38019750    19.50966070
H          12.03700640    10.16555120    18.83671570
H          11.09196470     9.53079990    19.83419990
O           3.78754570    10.95868400     4.14987660
H           3.64763620    10.01197430     4.16981890
H           2.90790680    11.33201790     4.20545960
O           2.91220070    14.41775130    20.43523790
H           2.17096330    15.01731010    20.34963420
H           2.52485800    13.54569720    20.35961150
O           8.83412080     2.70148660     4.33509350
H           8.47712800     3.58780430     4.39192100
H           8.79527850     2.48693420     3.40305760
O          11.30335710    21.59896850    22.39684300
H          12.08709910    22.10759740    22.18880840
H          11.55005170    21.08167460    23.16351130
O          10.73846240    15.54690270     0.24234930
H          10.97628210    14.82226470     0.82077370
H          10.08454900    15.17581370    -0.35003700
O          12.92560480    20.78271100     9.28866580
H          12.80677320    21.71265790     9.48182200
H          13.05702970    20.37516210    10.14474010
O           1.31647870    11.35874840     6.91986610
H           0.36358180    11.35799980     6.82920980
H           1.62933360    11.84386440     6.15631100
O           7.85677240    -0.11758060    13.57408520
H           7.66916180     0.29901100    12.73296360
H           8.52203750     0.44164280    13.97523690
O          10.98553470     5.16189910    15.42510130
H          10.91043470     4.51648860    16.12797930
H          10.78899190     5.99867920    15.84629250
O           3.40421300    23.68384360     6.48124840
H           4.18467040    24.07725140     6.87156630
H           3.61878660    22.75440980     6.40162320
O          13.27104950    19.03208540    11.64089490
H          13.64391520    19.40348820    12.44043450
H          12.38871380    18.75920300    11.89239120
O           5.44036010    15.36505220    19.33733370
H           5.31067710    15.23829360    18.39746860
H           4.63944240    15.02641680    19.73744580
O           2.62140920    22.15095900     3.65576820
H           2.51269440    22.49691580     4.54161640
H           3.13375310    22.81827550     3.19923040
O           1.63242640     6.85473920    15.19635490
H           1.04837880     6.32448290    14.65418430
H           1.05223210     7.47551440    15.63708690
O           8.81814480    15.87998100     2.68215110
H           8.80781270    15.22624300     1.98304400
H           9.68039230    15.78445340     3.08666940
O          15.67588620    12.91263390    15.06331830
H          15.67024140    13.75270180    14.60453130
H          16.13904950    12.31968590    14.47160430
O          13.42579650     9.18266200     0.97473870
H          13.85711480     8.84212110     0.19101110
H          14.04913040     9.01741310     1.68211330
O           8.88540840    10.50661370    10.18555640
H           8.22157290     9.95114040     9.77689460
H           9.52224640    10.67007160     9.48989010
O           6.11327310    15.82047750     3.70594450
H           6.63313580    16.31261250     4.34137870
H           6.73261020    15.59780980     3.01090980
O          14.50869940    23.24813840    10.47035220
H          14.17910000    24.13904190    10.58820530
H          15.40377810    23.36411670    10.15158080
O           6.91959810    11.58600710     3.19544170
H           7.02861450    12.24500270     3.88105990
H           6.81570050    12.09303760     2.39023490
O           5.63916970     3.79036950    12.19984050
H           5.74030640     4.06793120    11.28936670
H           5.72033880     2.83708290    12.17004780
O          10.18960290    22.57462310    20.01792530
H          10.82029150    22.36235810    20.70597080
H          10.69730660    22.53589060    19.20738980
O          16.25287440     9.91001990    20.74650380
H          15.54806520    10.34501840    21.22634700
H          17.02666660    10.44640920    20.91903310
O          11.68318560     5.27818200    21.31508830
H          11.19439980     6.01010700    20.93878360
H          12.59830760     5.55618910    21.27640150
O          -0.11777890     7.64819620    10.97156050
H          -0.06665240     8.60393330    10.95792580
H           0.35964570     7.39404490    11.76130960
O          10.56019690    18.35517120     0.71410520
H          10.53529070    17.39985660     0.76874700
H           9.63999270    18.61833570     0.69990690
O           0.17344080     7.14809700    19.39038660
H           0.95013990     6.64983220    19.64475440
H           0.10020050     7.83323760    20.05480380
O           2.03679300     9.58610530    17.27106860
H           1.82817100    10.41088960    16.83238980
H           2.83087440     9.77493760    17.77107810
