356
Conf 1. Box X: 16.209 0.000 0.000 Y: 0.000 14.844 0.000 Z: 0.000 0.000 14.575
C           7.80952690     7.25042580     8.00058560
C           7.83170410     6.29464860     6.89554690
O           9.18079950     6.20174550     6.44676590
N           8.27277090     8.68716720     7.52912140
H           8.36760040     6.88441230     8.86376950
H           6.79755590     7.44630000     8.35843850
H           7.22567130     6.75719980     6.10690160
H           7.38660140     5.36599970     7.27328010
H           9.34460350     6.90776110     5.79833170
H           9.12272170     8.66281600     6.94783500
H           7.58154540     9.19845870     6.96194650
H           8.33524990     9.40469930     8.26542660
O          11.30530830     2.33911060     8.25194740
H          11.97599980     1.86422370     8.74275020
H          11.64692690     3.23040700     8.18040080
O          15.30047700     3.54285450    12.44786070
H          14.84801860     3.15306210    11.69981290
H          16.18405150     3.72228460    12.12640860
O          16.10599900     7.89886620     7.65664010
H          16.03830720     7.88376670     6.70195580
H          15.24042700     8.17951110     7.95371720
O           6.50357200     1.17000790     4.42068100
H           6.79904030     0.26120020     4.36591720
H           5.55434180     1.12046410     4.30781130
O           4.30825760    12.50009730     1.15254500
H           4.27476880    12.26559540     2.07997110
H           4.01163960    13.40975190     1.12464210
O          13.57476230     7.95953510    -0.13707380
H          13.31845950     8.67031670     0.45057330
H          12.78932480     7.41797400    -0.21473650
O          10.78156280    11.10921570     5.84691480
H          11.26020430    11.66413590     6.46270470
H          10.63964650    11.66711710     5.08216760
O          10.55659390     0.56259180     6.28974200
H          11.40062240     0.29267050     5.92781590
H          10.77935600     1.20451760     6.96393780
O           6.14655070     4.76156090     4.87312080
H           6.82558110     4.12858150     5.10654500
H           5.32819180     4.26905300     4.93602230
O           9.55371570    14.83768560    11.82609080
H           9.68366620    15.53476720    12.46906950
H           9.71921830    14.02976040    12.31199070
O           6.30809930    13.80363270     9.12562940
H           6.12361190    14.71670630     9.34584050
H           6.83402400    13.85135170     8.32728200
O           3.45982910     3.04802060     7.29423050
H           3.85714840     3.22253540     6.44105150
H           3.76060060     3.76692320     7.85006050
O           6.57554100     1.78968020     1.80528280
H           7.11020760     1.10702540     1.39988710
H           6.69439890     1.65986610     2.74616150
O           9.87268350    13.12224100     3.14669700
H           9.68943410    12.44180970     2.49888230
H          10.77582930    12.95780180     3.41783950
O          15.64791200    12.09311960    13.98564050
H          15.11747260    12.58927630    13.36218640
H          16.52252390    12.47530170    13.91338830
O           3.05040910     8.94158650    11.21854880
H           2.21825740     9.35939600    11.44033810
H           2.98093610     8.06001090    11.58492370
O           9.62231060     1.19113900     3.59975150
H           9.69455430     1.02683000     4.53997230
H           9.60515120     0.31935000     3.20488260
O           2.59982560    11.04610920     5.95200630
H           1.68248620    10.98922160     5.68464140
H           2.99939160    10.24695300     5.60859970
O           2.57058170    13.59801010     4.64104940
H           2.17805240    12.78798870     4.31544590
H           1.83974800    14.07923700     5.02903800
O           1.92203950     9.45844650     2.42911150
H           2.20478990     8.73412510     1.87086270
H           2.50902200     9.42203900     3.18433190
O          15.70151230     2.14851260     0.77771980
H          16.25684930     2.28998450     0.01102670
H          15.67594620     2.99948050     1.21524880
O           2.75595000     0.03014110     1.00322270
H           2.78026990     0.41967090     0.12920490
H           1.88917210    -0.37164570     1.06234360
O          13.24723530    12.47849660     4.47855710
H          13.12743850    12.28179840     5.40763710
H          13.49788380    11.64179520     4.08697410
O          10.87476830     6.07174160    10.71984390
H          10.88871670     5.94177480    11.66807650
H          10.18563270     5.48525760    10.40781880
O          11.70158480     8.30801300     2.45957330
H          11.86208720     7.39272450     2.68917370
H          10.74890520     8.39760680     2.48418620
O           4.18274310     0.64158320    12.11486820
H           3.95807310     0.76923970    11.19320770
H           5.11919930     0.44350980    12.10790440
O           3.82391410     0.94940540     3.51230570
H           3.34140630     0.48279500     4.19472270
H           3.43495390     0.64422820     2.69266650
O           9.17341040    12.70980360    13.81978510
H           9.74530120    11.94336510    13.86155220
H           8.33692550    12.40387820    14.17040540
O           0.43254600     1.28294540     4.23854260
H           0.03173480     1.07801650     3.39380220
H           0.34333870     2.23232250     4.32195430
O          15.97588250    14.97255230    10.71988870
H          15.13602540    14.91828920    11.17587950
H          16.13516810    14.08290770    10.40462490
O          11.26244540    10.59067150    13.20894430
H          11.53702160    10.57012270    12.29220200
H          12.07829670    10.68092250    13.70136070
O           3.61538050     3.34188390     4.47485210
H           3.38994910     2.77150650     3.73994970
H           2.88338330     3.95572690     4.53493310
O           4.94578890     5.61714030     1.54473610
H           5.08068320     6.27952620     0.86703310
H           5.75722790     5.62519310     2.05241130
O          14.13036440    10.16193490     8.14543150
H          13.76065160    10.98827550     7.83445740
H          14.19282530    10.26959990     9.09450340
O           8.93571380     8.01226330     2.25056340
H           8.44740100     7.18899770     2.25464920
H           8.26976590     8.68503760     2.10871770
O           1.08340820    10.06388380     9.09200670
H           1.70828370     9.44229030     9.46535020
H           0.57986660     9.54819300     8.46213250
O          15.84709260    12.86088850     7.29017640
H          14.91185860    13.01299100     7.42594530
H          16.20101550    12.74293990     8.17168430
O          12.62711050     8.16045670     7.10682490
H          13.03014470     8.91203500     7.54147910
H          13.06551840     8.11160470     6.25732800
O           8.37979600    10.76266670     9.40644260
H           9.16429230    10.46369080     9.86623670
H           8.38435750    11.71331020     9.51819040
O           1.78439270     6.64056630     9.23400780
H           1.10349190     6.82522920     8.58708760
H           1.31183270     6.55859800    10.06237980
O           4.56790160     3.84390190    12.15616890
H           3.65724400     3.85301330    11.86146260
H           4.54792640     3.35830810    12.98080920
O          13.54909130     5.72595450    10.96303750
H          12.65163140     5.97065500    11.18869020
H          13.46439170     4.87503770    10.53292370
O           0.78428680     2.77349970     8.56768510
H           0.62985610     1.86555600     8.30687810
H           1.64856650     2.98103830     8.21246620
O          10.67832280     6.49307390    13.97675320
H          10.41510110     5.59370850    14.17191410
H           9.92048360     7.02328820    14.22329520
O          13.26294140    14.84141830     3.29138900
H          13.29894540    13.98790070     3.72318080
H          13.43118290    15.47155760     3.99199680
O           1.09760070     0.72701720     6.68918800
H           1.41105150     1.36577630     6.04890160
H           0.35841040     0.29839590     6.25777960
O           7.66415020     5.55551860     2.72493890
H           7.17599110     5.23696090     3.48418380
H           8.32441710     4.88129660     2.56461620
O          16.21401790     7.02801850    14.01778700
H          16.86330030     7.70247700    14.21720700
H          15.46094320     7.25131940    14.56482220
O          13.80896090     1.50107980     5.62577680
H          13.79553130     1.25247790     6.55003260
H          14.36394210     2.28037760     5.59540370
O           6.94034290     1.02468610    11.38993070
H           7.79215100     0.58976580    11.35121440
H           7.03563400     1.67664120    12.08426950
O           4.93857100     3.23188140     0.27321700
H           5.40251970     2.72215290     0.93741610
H           4.69921970     4.04449610     0.71886430
O           7.28442530     9.76960660     0.98495680
H           7.79906080     9.52982140     0.21431710
H           6.72220560    10.48377610     0.68478520
O          10.04502300    13.35798450     9.39339160
H           9.96966650    14.12238220     9.96457390
H          10.78590300    13.55848030     8.82143880
O          10.79198070     1.45067290    13.90639780
H          11.73027230     1.38450650    14.08377740
H          10.63657090     2.38739130    13.78540520
O           0.45800460    12.59549050    10.02708340
H           0.75802520    11.75253200     9.68702410
H           0.86347220    12.66304590    10.89152810
O           0.48615900     9.52686690    12.07927420
H          -0.40167580     9.27210330    11.82812400
H           0.36912830    10.32185170    12.59940430
O           9.42245290     3.79413910    12.42954540
H           8.63100910     3.47623560    12.86403940
H           9.49862670     3.25226330    11.64417930
O           3.23657660     8.78685190     4.77038960
H           4.13610790     8.94414620     4.48345090
H           3.28869180     7.98770380     5.29467730
O           8.03643700    14.89238550     0.53672320
H           8.90294360    14.51459310     0.38615660
H           7.42906670    14.17025950     0.37588940
O           2.98184470    13.27754880     7.39149480
H           2.16500740    13.77590560     7.41696930
H           2.81614090    12.57823660     6.75924780
O          15.51641180    10.22793670     1.48393990
H          16.41087150     9.90790080     1.60119750
H          15.58842470    10.89567280     0.80190330
O           2.57172870     7.82387300     0.38965090
H           3.15342350     8.50811390     0.05847700
H           2.78948160     7.05129860    -0.13183160
O           7.41129450     7.95034270    11.34023480
H           7.47425460     7.02105380    11.11957650
H           6.75161930     8.29523940    10.73848150
O          14.19965840     6.39211990     3.40537500
H          13.30717370     6.11062770     3.20421310
H          14.75777630     5.77736430     2.92912720
O           1.62617050     1.00011130    12.96730900
H           1.19217860     1.11353180    12.12172030
H           2.55903720     1.08719090    12.77132700
O           9.89685820     8.13512710     5.04688930
H          10.58679770     8.75859260     5.27383900
H           9.76012990     8.26053910     4.10784240
O           5.05826040    11.55032250     8.19821550
H           4.18317990    11.93305110     8.13509080
H           5.60491850    12.25763990     8.54041390
O          12.30758090     5.18217330     6.91968920
H          11.87423420     5.14429040     6.06704190
H          12.12514590     6.06479310     7.24207500
O           5.49819760     9.56459330     3.37726020
H           6.13404130     9.51571750     2.66343590
H           5.28027680    10.49449920     3.44064710
O           9.41564850     3.63645390     2.18498950
H           9.41387750     2.92374830     2.82395700
H           9.13709350     3.22522950     1.36673880
O          14.38030820     8.23095420    11.83294770
H          14.27159690     7.96825080    12.74695110
H          14.23424240     7.42738290    11.33378030
O          12.84142590    10.88735870    10.82719800
H          12.61323830     9.97362900    10.65614410
H          12.48175720    11.36769390    10.08144470
O          12.80615810    10.95799540     1.09940720
H          12.79256150    11.91363050     1.04641010
H          13.73539070    10.72984030     1.07287410
O           1.00388570    11.97258950     3.08683590
H           0.19091080    11.90307900     3.58730750
H           1.24792150    11.06622310     2.89927770
O          15.99316500     7.83324480     4.95379020
H          15.32263090     7.50331640     4.35565660
H          16.16643140     8.72465520     4.65114310
O          11.71141240     3.33411430     5.20866920
H          11.22483060     2.92311220     5.92319490
H          12.27410980     2.63758970     4.87035270
O           1.48224560     5.10315080     5.11867190
H           1.07809840     5.92286060     4.83411460
H           2.33760910     5.36376330     5.46023610
O           5.53355220     3.38322850     9.37227060
H           5.53997520     2.43262220     9.26029870
H           4.90189220     3.53738900    10.07474610
O           5.52739810     7.74286890    14.09272960
H           5.26464890     8.66315840    14.07655430
H           6.41040990     7.73936320    13.72325800
O           5.43784620     9.01641270     9.61816980
H           4.84137060     8.94686320    10.36356350
H           5.07659960     9.72664830     9.08779340
O           4.19436220     6.61679320    11.98487660
H           4.47325230     5.70122190    11.97141460
H           4.74808550     7.02608820    12.64978220
O          15.12784860     3.96895240     5.34081460
H          14.52388670     4.59805150     5.73539920
H          15.99704460     4.33105420     5.51290180
O           4.94834280    12.18497470     3.82587910
H           5.81755780    12.48945240     4.08662940
H           4.34530690    12.67438130     4.38539740
O          12.43508050    13.55110550    14.01577190
H          12.73516750    14.32144170    14.49822520
H          11.48250290    13.64121910    13.98919200
O          13.93527320    13.48417190    12.00484280
H          13.40433410    13.42296890    12.79893970
H          13.84802060    12.62519260    11.59159560
O           6.62041090    12.26902010    14.46363640
H           6.40941240    12.14229580    13.53862190
H           5.76925330    12.32877160    14.89744760
O          11.28501510     8.48749450     9.60547450
H          11.14074330     7.58823250     9.89999870
H          11.62520790     8.39635180     8.71542170
O           7.60667510    13.47565360     4.60917620
H           7.94742110    13.30505850     5.48725410
H           8.36660290    13.38131430     4.03485730
O           6.46965980    11.88371280    11.62645240
H           6.36178540    11.28921320    10.88404750
H           6.97757150    12.61527820    11.27563950
O          13.58528800     9.87352370     3.77390670
H          14.19822030     9.77177720     3.04576250
H          12.90189170     9.22516730     3.60409590
O          11.43995670     5.47644000     3.36964610
H          11.70418360     4.66373780     3.80084280
H          10.58565710     5.27748630     2.98647450
O           3.88185310     6.14826630     5.70522880
H           4.77066090     5.97483490     5.39510920
H           3.99897430     6.47583150     6.59697720
O           7.52312180     2.61104230    13.70140170
H           7.67764760     2.01290540    14.43255520
H           6.61848070     2.90177080    13.81687070
O          12.73385620     0.51704430     9.89376260
H          12.97766490    -0.36597080     9.61614230
H          12.54999830     0.43179160    10.82926270
O           0.46445100     5.97629310    11.57322600
H           0.40933470     6.46702530    12.39321140
H          -0.34216110     5.46156450    11.54746440
O           2.28030920     4.85543200     1.94078250
H           3.16584920     4.82583190     1.57860230
H           2.36678960     5.37015200     2.74316410
O          10.16395950    11.10066030     1.44461060
H           9.76468280    10.28831200     1.13332490
H          11.09313010    10.89046100     1.53783350
O           7.15106490     5.44272570    10.53165440
H           7.92949100     4.88742020    10.57548620
H           6.59991360     5.03047230     9.86643980
O           4.29686880     6.76434950     8.29922770
H           3.44756200     6.63523530     8.72141170
H           4.77682400     7.33752580     8.89700980
O          14.53851800     3.08550760     9.71415520
H          15.25188920     3.17178850     9.08178810
H          14.14166830     2.23790760     9.51336670
O           8.82715030     9.43608760    13.44332410
H           8.41169640     9.12331680    12.63970470
H           9.72690110     9.63653180    13.18544290
O           6.53112080    10.23233600     6.10695080
H           6.04974270    10.34272000     5.28699830
H           6.03531460    10.74363800     6.74646470
O          16.19844820    14.23604110     1.52483990
H          16.02414890    15.16721630     1.38785790
O           8.37231350    13.85686020     7.21866420
H           8.97206310    14.42500020     6.73518750
H           8.89056780    13.53328510     7.95551110
O           3.69643590     0.52631880     9.19656090
H           2.90009240     0.78826930     8.73455430
H           4.06385710    -0.17672130     8.66086770
O          15.85858820     5.03132100     1.37472180
H          16.69096180     5.01152750     1.84694270
H          16.06031610     5.47769310     0.55235370
O           4.21134420    10.13893600    14.01371190
H           4.15391210    11.01302720    14.39958670
H           3.94813820    10.26198480    13.10167410
O          13.21528050     0.87316780     0.76212440
H          13.20404620     0.71845840     1.70667200
H          14.01442720     1.37808540     0.61161020
O          12.55581000     3.76304460    13.32360550
H          12.86903950     4.26686720    12.57241820
H          13.29151730     3.19628830    13.55545330
O           3.78292080    12.55601790    11.06657030
H           3.88152980    12.79894640    10.14597610
H           4.67465730    12.37408730    11.36311530
O           7.90382100     2.96789480     5.81921240
H           8.84257220     2.84862640     5.67515330
H           7.51541710     2.12775540     5.57520340
O           1.78522810    13.11142350    12.90395160
H           2.59969000    13.04682830    12.40524200
H           1.63861940    14.05219460    13.00237270
O          15.83373550    11.06263450     5.26728150
H          15.04329870    10.61902620     5.57494020
H          16.01506420    11.72131920     5.93771890
O           1.96530840     3.77314310    11.10158540
H           1.51826800     4.61652900    11.17291450
H           1.59023230     3.36865830    10.31931780
O           8.85404300     2.99761410     9.95315360
H           7.95937060     2.66453390    10.02280710
H           9.20944880     2.56851510     9.17482660
