1196
Conf 1. Box X: 18.722 0.000 0.000 Y: 0.000 25.980 0.000 Z: 0.000 0.000 24.848
N          11.95713900    13.75157550    12.25354390
H          11.26755430    13.32508470    12.87482830
C          12.93512820    12.85978980    11.74619290
C          14.09325890    13.69653130    11.39696310
C          13.78060050    14.96313570    11.79688840
C          12.39215560    15.03229050    12.39898680
C          15.31942270    13.02898790    10.77943230
H          15.25459960    13.21973800     9.69442750
H          15.41282940    11.94412990    10.95883560
H          16.17085080    13.62608810    11.14872170
O          12.75978570    11.70703120    11.58601190
C          14.53399750    16.19942860    11.64500050
H          14.10764030    17.09324840    12.11691860
C          15.70055870    16.48029900    10.98557280
H          16.18706510    17.45165250    11.11766820
H          16.31652260    15.76893900    10.42680360
C          11.60006710    16.12219240    12.85913280
H          12.17113590    17.05848120    12.83379750
N           9.25692180    15.39124970    13.29161640
H           9.40051940    14.38584040    13.21661570
C          10.23935130    16.29793930    13.28174020
C           9.74049190    17.55175400    13.77206040
C           8.41796110    17.36366650    14.02600670
C           8.09134480    16.03815080    13.83681300
C          10.50616840    18.86291500    13.79462050
H           9.98268800    19.72088620    14.25034140
H          10.79039000    19.17172620    12.77399250
H          11.42886730    18.65063670    14.36153790
C           6.85226540    15.45101450    14.01575660
H           6.16082760    16.15874480    14.48820880
N           6.81721400    13.07435510    13.10309980
H           7.75814630    12.92894360    12.74172400
C           6.23479650    14.19447330    13.66807940
C           4.90937140    13.89739130    13.99652290
C           4.63677020    12.58661370    13.62655450
C           5.77664380    12.12869260    13.01146700
C           3.26208230    12.04370020    13.60753440
H           2.96579380    11.75665090    12.58399010
H           2.50144980    12.71774580    14.03755760
H           3.14993260    11.07570650    14.12544630
C           5.94622710    10.76758100    12.54638860
H           4.95354940    10.30690770    12.47894670
N           8.33772180    10.46077060    12.13553240
H           8.69439320    11.41769030    12.15798950
C           7.01169200    10.09277820    12.07930760
C           6.93851660     8.66600800    11.62203030
C           8.23598190     8.24042030    11.42560010
C           9.12127970     9.41800500    11.69209480
C           5.69061280     7.88216300    11.34423640
H           4.89173220     8.40900140    10.79463960
H           5.21270560     7.62540250    12.30522730
H           5.87967300     7.01285080    10.69125940
O          10.30695630     9.51581480    11.55625920
C           8.70406060     6.91338920    11.04110340
H           7.98549460     6.15744070    10.70289230
C           9.98999020     6.48337750    11.26441190
H          10.28432750     5.51763340    10.84207150
H          10.77026750     7.05203820    11.77964020
H           4.11293080    14.58337400    14.27911950
H           7.74586010    18.09074400    14.47810360
O           0.52670350     2.11816190    19.79050640
H           1.24365720     1.99198400    20.41202740
H          -0.26538880     1.95219190    20.30165860
O          14.70125290    24.53348730    11.69556620
H          14.11603640    24.49168010    12.45187570
H          14.15057090    24.86100960    10.98443410
O           3.73048140     4.80330180    11.88328360
H           3.01260160     4.58736560    11.28809170
H           4.51904580     4.52158980    11.41956140
O          14.22111610    23.64677810     8.36025050
H          15.12022110    23.35833740     8.20326810
H          13.89963250    23.90897940     7.49761960
O           4.79081150     7.03113750     6.08190540
H           5.15800570     6.65304040     6.88093190
H           4.00214960     6.51552300     5.91342450
O           3.04674410    14.07784940    17.18533710
H           2.12987160    13.93724060    16.94910620
H           3.34767890    13.22396660    17.49607090
O          10.45938010    21.32211490     2.17893980
H          10.82750700    21.32843590     3.06249710
H          10.88984110    22.05270200     1.73489190
O           7.07448290    19.66362190     8.15306760
H           7.92028620    19.59901810     8.59654810
H           6.89657210    18.77466580     7.84592440
O           3.94084860    23.79230500     5.30984020
H           4.61317060    23.60153200     5.96391960
H           3.64890410    22.93196300     5.00848580
O           1.09812370    12.55431940     6.27556610
H           0.62710210    12.17309000     5.53459740
H           1.60914240    11.82843590     6.63359450
O           6.32215980    12.09622670    19.65372470
H           6.92847160    12.20972440    20.38566590
H           6.76744460    11.48554330    19.06634140
O           1.24577010     7.98558900     6.08255860
H           1.43198450     7.07598070     5.84981730
H           0.84735750     8.35741900     5.29564000
O          11.71971320    18.11125560     5.58589170
H          11.81114860    18.89074330     6.13386150
H          12.03266910    18.38625140     4.72410870
O          -0.26694190    18.72035790     6.76013760
H          -0.35908180    18.30259900     5.90385530
H           0.64251390    18.55674170     7.00984000
O           5.81586170     7.05027390     2.43039230
H           6.07989880     7.49108890     3.23797990
H           5.72492690     7.75653170     1.79073430
O          18.52956580    13.09680180    19.86436080
H          18.45594410    14.04092600    19.72492410
H          17.77372360    12.72757820    19.40762520
O          17.38838390     7.00989010    21.29634480
H          17.65132900     7.60683350    21.99688150
H          16.45092580     7.16855050    21.18575670
O           5.82895760    14.28302000    22.14212420
H           6.75339790    14.09865280    21.97583770
H           5.46044350    14.45947360    21.27650830
O          17.37878420    15.61521240     4.44648650
H          16.52647020    15.22682480     4.24913690
H          17.95864490    14.86536310     4.57959750
O           0.56004640     0.77134390    17.35379030
H           0.50475660     1.18580160    18.21483610
H          -0.00878750     1.30166470    16.79574010
O          12.86726470    25.06866260    13.68016430
H          12.20437340    25.60809520    13.24909970
H          13.19893550    25.61849400    14.39002990
O           4.42824360    25.75182150    19.58104710
H           4.37854960    26.15805050    18.71574970
H           5.34185700    25.86114120    19.84485050
O           0.23332660    -0.17551190    12.25747110
H           0.55615160     0.70765320    12.43645670
H           0.82514020    -0.51540830    11.58630940
O          14.39232730     1.54755960    12.27072910
H          14.40851120     0.59088760    12.29808810
H          14.46798800     1.76189200    11.34090610
O           7.94180490    18.63352010    21.18539240
H           7.74853800    19.45553970    21.63612750
H           7.97928620    17.98032380    21.88407710
O          16.48059080    12.27509400    22.11159710
H          17.43144610    12.20947270    22.19991490
H          16.13818360    11.60791680    22.70646100
O           5.95914360    19.14132500     4.02526660
H           6.74461360    19.27361680     3.49444870
H           5.89615440    18.19166370     4.12728600
O          15.12529470     5.24695490     7.56867600
H          15.78873540     4.74430370     8.04134940
H          14.91739370     4.70976310     6.80419350
O          12.65785690    22.47283170    13.99143410
H          13.49807830    22.34877970    14.43287470
H          12.61791320    23.41223340    13.81210140
O           0.29299750     2.23578070     6.81012250
H           1.23666110     2.07680990     6.83156390
H          -0.07247310     1.45289860     6.39810470
O           6.84503750    19.18180080    18.63599970
H           7.03797150    18.80091290    19.49269870
H           7.38306430    19.97260860    18.59881780
O          14.37424760    20.24355510    24.68406110
H          15.19616410    19.77951430    24.52483940
H          13.83751580    20.05070500    23.91532330
O          15.63944150    22.96222690     1.20830440
H          16.02312280    22.22113800     0.73947050
H          16.26688770    23.67449000     1.08491330
O          11.21070100     3.53413610    18.12866590
H          11.02870660     4.29631420    18.67838860
H          10.83781430     3.75909450    17.27626800
O          15.10164170     6.82508090    16.15565490
H          15.93015960     6.47468570    15.82852550
H          15.28237250     7.74994370    16.32357600
O           6.53538990     5.31064180     7.80625720
H           6.91380980     4.91316750     7.02200980
H           6.29038430     4.56719830     8.35716250
O           3.87924120    15.99070070    10.70201490
H           3.45802090    16.67930030    10.18758770
H           3.46806450    16.05044940    11.56433490
O           3.45561910    17.77803040     8.74761200
H           3.37223650    18.71850590     8.90503690
H           2.86599990    17.60482790     8.01373100
O           6.71770950    24.38301660    16.38162990
H           6.98311610    24.78787610    15.55587010
H           6.91150000    25.04444890    17.04584690
O           2.64273950    14.31207080     3.65448280
H           2.84208560    14.42970560     4.58327480
H           2.01673670    15.00785260     3.45388130
O          12.58124830     5.21566340     9.06348230
H          13.50763420     5.27509550     8.83000760
H          12.52987190     5.59885600     9.93912700
O          17.40519520    16.06461140     1.37002180
H          17.66172600    15.47114470     0.66417410
H          16.66892430    15.62581920     1.79616640
O          15.79682730    26.08513450    16.49899480
H          16.04887960    25.47188760    17.18937870
H          16.11006160    25.67828180    15.69116590
O          10.66975980     5.63964030    20.38657190
H          10.17022990     6.45464710    20.33691410
H          10.01756380     4.97143510    20.59722330
O          18.15196230    16.12835880    18.65184970
H          17.27314570    15.98213860    19.00189590
H          18.54039190    16.77426910    19.24189380
O          11.03208450     0.69738130    12.10799410
H          10.50518040     1.35834320    11.65884590
H          11.38800910     0.15564510    11.40367130
O          13.16627790    20.98116870    21.71516230
H          13.72200110    21.12183570    20.94860080
H          12.51590630    20.34143450    21.42535400
O          17.36809160     2.29160760     2.03659820
H          17.75858880     1.76384510     2.73316960
H          16.43285750     2.30271790     2.24017810
O           4.27781770    14.12384410     8.81880760
H           4.40679650    13.34660240     9.36240010
H           4.18530650    14.84161280     9.44528960
O           0.09263080    20.55004310     2.90035340
H           0.77172540    20.24314310     2.29962540
H          -0.19581950    19.76096920     3.35903550
O          13.63518810    10.45595840     2.89584450
H          12.98980430    10.84213350     3.48794270
H          13.24941730     9.62022780     2.63322930
O           9.88255020    12.44183250    14.07408710
H          10.61960600    11.84967040    14.22349930
H           9.28221230    12.26446910    14.79821970
O          17.87283710     6.54557560     8.61302380
H          17.29851720     7.00871850     9.22284890
H          18.75748830     6.79167890     8.88331600
O           3.82941890     2.92796680     7.48163220
H           4.43138980     2.21825480     7.70562080
H           3.54744220     2.72998170     6.58859060
O           0.99029180     3.91510030     3.72394470
H           1.08982620     4.62536620     3.09003070
H           0.08848060     3.99586890     4.03450110
O          14.01463600     4.99464560    19.26187710
H          13.64948750     4.15459010    19.53973580
H          14.85737900     5.05023910    19.71234890
O          15.53207970    21.92200090    11.25676350
H          15.05943970    22.71415710    11.51236340
H          16.03229520    22.18077850    10.48277850
O          16.48960490     4.72357270    23.76464080
H          15.68129830     4.62205700    24.26720050
H          16.78461650     3.82761690    23.60196300
O          10.37215140    16.25333600    18.30421450
H          10.22165390    15.99623010    19.21387290
H           9.78249930    15.69546030    17.79695130
O           8.78380870    16.08751490     7.92235760
H           8.03928090    15.50008680     7.79260060
H           8.87758260    16.14896010     8.87297060
O          13.76286980    12.21821590    14.53209300
H          14.60443210    12.60894390    14.29685210
H          13.66307740    11.48259640    13.92782590
O          15.66814900     2.47923800    17.70043180
H          15.66942310     1.66632880    17.19505120
H          14.96397500     2.36354730    18.33838650
O          10.49845410    14.25704290     9.59764100
H          11.44187830    14.31344410     9.44597630
H          10.13720230    13.97509670     8.75726130
O           2.37905670    21.11032490     6.43727210
H           2.17004040    20.77960970     5.56367490
H           3.33146740    21.20594020     6.43563460
O           1.69235100    11.68637280    21.22335430
H           1.26902020    12.24115280    20.56818960
H           1.46839150    10.79327200    20.96173290
O          10.37604430    13.83788780     2.54078390
H          11.14605810    14.39805320     2.44319250
H           9.72379110    14.39842610     2.96101470
O          11.21994400    23.24397280    18.80498500
H          11.39098260    22.36586950    18.46452710
H          10.85135170    23.72143170    18.06174660
O           2.59774610     9.12100510     9.56839940
H           2.56226750     8.18282700     9.38186450
H           2.06619520     9.22865490    10.35713010
O          12.73836230    15.36127950     2.10893730
H          12.75594430    16.24271970     1.73612980
H          12.83515450    14.78016380     1.35450550
O           0.15020720    13.08674430    14.20846750
H           0.23884460    13.73094180    13.50605390
H           0.26276790    13.59276490    15.01314350
O          16.64607240    25.22925950    13.62167550
H          17.29147720    25.79081920    13.19233510
H          15.93249320    25.15652660    12.98784070
O          15.90235520     9.75389580    13.45002370
H          16.41498950    10.33457760    12.88766670
H          16.42485620     9.67028240    14.24766540
O          14.25204560    20.71585850    19.26589010
H          13.86066910    21.26380160    18.58558460
H          14.61877730    19.96996880    18.79113960
O           8.78079320     2.37390380    11.03811650
H           8.94766430     2.53238530    10.10899350
H           8.26204590     1.56962500    11.05451200
O          10.72760390     0.28838660    23.78355410
H          10.03951260     0.44265610    24.43082810
H          10.96901040    -0.62989570    23.90485000
O          12.60774710    13.99523830    16.35782810
H          12.28268910    13.54394530    17.13686750
H          12.93700890    13.29449940    15.79499440
O          11.85042190    12.60589690    23.83314510
H          11.11513900    13.21190740    23.92449000
H          11.57721140    11.99991130    23.14439960
O          16.35443120     9.81684210     3.56620790
H          16.42368700     9.45127010     4.44813350
H          15.59884070    10.40295030     3.60853960
O           3.39321540     6.01784710     1.94505410
H           3.46025820     5.09385440     1.70427610
H           4.24470810     6.22780280     2.32860370
O          13.67456150    23.69751170     5.28759000
H          12.78979400    23.52962680     5.61198710
H          13.76937770    24.64897350     5.33187390
O          18.42828560     7.05908490     3.99732300
H          18.13952450     6.74922660     4.85571380
H          18.10348700     6.40054940     3.38326360
O           3.95173720    11.53572750    10.12081720
H           3.92725160    10.60828400     9.88527300
H           3.05893350    11.73490240    10.40271000
O           5.59986880    16.20138740     3.70472430
H           5.27092550    15.35912700     4.01876830
H           4.81384180    16.68808750     3.45670030
O          17.44512940     4.57588150    17.85307310
H          16.80857280     3.86314750    17.79795270
H          17.42272570     4.84656860    18.77092930
O           3.59472820     3.82116910    20.10870930
H           4.48259740     3.47794270    20.20928190
H           3.48523310     3.92904160    19.16393090
O          12.34900570    24.43274120    20.99517060
H          11.81739230    24.23476790    21.76616100
H          12.19761180    23.69525340    20.40405080
O          14.50464920    25.93331530    24.03619960
H          14.51137450    25.27764510    23.33885770
H          14.00216010    26.66306300    23.67397690
O          14.83164500    21.67376900     3.49942490
H          14.91933820    22.23235510     4.27177430
H          14.91686060    22.27408030     2.75875190
O          14.81454940    14.91414550     3.77543450
H          14.50123690    14.13601780     4.23650360
H          14.07738970    15.17984010     3.22567560
O           5.70112230    18.52500340    11.85364340
H           5.16950130    17.89477350    11.36741260
H           5.44951440    18.39553070    12.76806260
O           9.55568700    24.34751890     4.65838720
H          10.21882630    24.80560110     4.14201640
H           8.74079990    24.81228830     4.46817680
O          11.66170500     9.34224800    21.79710580
H          12.26006220     9.33383940    22.54418750
H          12.23469450     9.39019110    21.03185080
O           1.32467090    10.33740040     1.10754490
H           1.15027960     9.48344520     0.71184350
H           2.21242260    10.55594060     0.82405090
O          10.46659760     3.01382640     5.13013080
H          11.28292750     3.36597850     4.77540870
H          10.60751820     2.98949410     6.07658770
O           4.95125010    18.52093700    14.36421970
H           4.47577860    18.06097220    15.05602260
H           4.73231890    19.44343950    14.49570470
O          16.16208080    13.95122240    14.21166230
H          17.10156630    14.08959200    14.33186910
H          15.83312890    14.79561610    13.90340610
O           2.38937540    18.12170030     3.91763210
H           2.75695300    18.79235270     3.34200480
H           1.97866830    17.49431990     3.32269950
O          11.90565970    10.25603010     8.87702370
H          11.03481390    10.57545470     8.64074520
H          11.90867140    10.25454520     9.83421900
O          14.81740470     2.49588270     2.74060440
H          14.00729080     1.98915230     2.68428230
H          14.68324570     3.22948880     2.14055820
O          15.88718030    14.79996680     7.59623530
H          15.74775510    15.70175080     7.30713940
H          15.70696540    14.26914220     6.82036110
O          16.44948770     4.59942910    20.54776000
H          16.87451170     5.38967080    20.88108250
H          16.02652930     4.21329310    21.31472590
O          16.11139110    13.67671590    17.55895610
H          15.17868610    13.88755990    17.60182570
H          16.35450170    13.84972670    16.64945220
O          18.25891490     4.86555290    12.07622910
H          17.41805080     4.44798990    11.88962550
H          18.10148810     5.79796930    11.92774010
O          18.50584410     2.55325010    23.39469720
H          17.98994060     1.97410550    22.83374400
H          19.26647190     2.78688880    22.86263660
O           8.25540260    12.82265570    21.67011640
H           8.58644290    13.26520060    22.45165250
H           8.18911170    11.90262600    21.92581560
O           4.44596670    11.74917790    17.28225710
H           4.78921030    11.17222600    16.59995080
H           4.93296810    11.50537110    18.06941800
O          13.47049050     9.48565770    19.78092770
H          14.11062910     8.78079510    19.87903790
H          13.56890580     9.77398780    18.87350650
O          13.16117950     8.93935300     5.57860370
H          13.38751700     8.72940250     4.67255500
H          12.47958090     8.30757900     5.80776410
O           1.12758220     7.50317100     0.93226720
H           1.83594520     7.02294110     1.36102490
H           0.90243410     6.96862980     0.17081790
O           6.87984280    12.52079200     9.58792110
H           6.36091520    12.55767440     8.78443720
H           6.32081410    12.05944630    10.21312520
O           3.76794080    14.30373950     1.18580910
H           3.41554570    14.36438660     2.07371230
H           3.56395360    13.41085720     0.90763280
O           8.87288280    10.15328310     4.78704640
H           7.97432900     9.85500240     4.92798230
H           9.18964860    10.38069150     5.66121860
O           2.26983710     2.49312000    22.05370140
H           2.65590260     2.80452280    21.23503680
H           2.91000200     1.87083450    22.39892770
O           5.44312000    11.23846050     7.27952860
H           5.45478440    10.69480510     6.49178890
H           4.74739930    11.87625690     7.12009050
O           7.50710390    23.96945190     6.73396210
H           7.04368690    23.65084080     7.50853630
H           7.87949660    23.18210790     6.33691410
O           0.67648760     8.96523280    19.22590450
H           0.00685040     9.05684470    19.90371510
H           1.35845050     8.43140130    19.63356020
O           8.94440750     0.60581980     0.92985730
H           9.10587500    -0.33474550     1.00399970
H           8.84756470     0.90422820     1.83418370
O          18.45402910    11.72830100     3.97030540
H          18.51712800    12.13640310     3.10676380
H          17.93474390    10.93759350     3.82416920
O           7.40678880     3.93067530     2.05184650
H           6.72851750     3.82000950     2.71813010
H           8.16635230     3.46662260     2.40391060
O          13.91160870     9.21609690    23.29940990
H          14.65582560     9.78386970    23.49942970
H          13.88266850     8.59412480    24.02642060
O          16.12545590    17.18801500    14.28086660
H          16.01929860    17.85640340    13.60394670
H          16.50138850    17.65833090    15.02498250
O           4.85871220    24.60616490     1.35856340
H           4.19968890    25.22967530     1.05335140
H           5.46192840    24.51498790     0.62096600
O          13.93435760    11.29916480     6.93000320
H          13.41062450    10.58889960     6.55924700
H          13.83363060    11.20193770     7.87691020
O           7.41799830     7.91529180     6.94331550
H           6.88031580     8.04798890     6.16259670
H           7.01799680     7.16627880     7.38514230
O           3.70581980    11.91288950    22.64906690
H           4.37476060    12.11611560    21.99526980
H           2.88135600    11.93586160    22.16330530
O          11.29352380    23.49604800    23.41523930
H          10.77602670    22.85433770    22.92878720
H          11.96156980    22.97599600    23.86188510
O          11.90632150    20.97359660     4.43295190
H          12.84384250    21.13601300     4.32851030
H          11.78309730    20.88080790     5.37764070
O           5.88665580    17.04882620     7.90896030
H           4.96848960    17.19337080     8.13767240
H           6.23025610    16.51353650     8.62424660
O           5.08417030    20.69643020     6.33158110
H           5.42207340    20.23510550     7.09919740
H           5.56392190    20.31843950     5.59456440
O           8.53105160    23.20014190    24.29977990
H           9.19838910    23.38914300    23.64010430
H           8.97644520    23.33437920    25.13634300
O           1.07053720    21.40747260    20.90615080
H           1.59563120    20.65501210    21.17875290
H           1.70253960    22.01256750    20.51799390
O           3.58718420    21.52349280     3.62755390
H           4.37403680    20.98069570     3.67721270
H           3.51722690    21.75983050     2.70263100
O           7.79782100    14.63528540    17.20233730
H           7.62980370    15.41556840    16.67398260
H           7.11639790    14.01664260    16.93932530
O          11.63309960     7.42008880     7.68057820
H          12.09297660     6.77810430     8.22150420
H          11.69556520     8.23783300     8.17416100
O          17.29553220    19.44942470    16.43159290
H          16.52516940    19.12265590    16.89634510
H          17.18232730    20.39982030    16.41887660
O           8.94556520     1.65152110     3.45513060
H           8.25144200     1.41840800     4.07164000
H           9.69280820     1.87621920     4.00954060
O          16.60863490    24.58720780    18.69286540
H          16.12931250    24.78541370    19.49735070
H          17.52919200    24.59225460    18.95512580
O           6.56392960    17.16816520    16.86621280
H           5.65364740    17.02022170    17.12259480
H           6.89908220    17.78435520    17.51753040
O          18.10555080     5.02420430     5.95165250
H          17.96779440     5.42671780     6.80911250
H          18.33941460     4.11696100     6.14773560
O           0.29747120    25.14171220    20.16951750
H           0.81737350    25.24459650    20.96660420
H           0.94529790    25.07318500    19.46819310
O           9.30539510    14.24557690    23.80719180
H           8.93352030    14.72582530    24.54699130
H           9.76208590    14.91221520    23.29410550
O          11.31779100     3.24893360     7.96738340
H          12.11727050     2.74538470     7.81407640
H          11.62253760     4.07132050     8.35084340
O          11.79535580    12.02580170     3.88542370
H          11.24592880    12.43642040     3.21777530
H          11.96765420    12.72441290     4.51668170
O          -0.17061340     9.19624230    22.38992880
H          -0.52185110     9.87216760    22.96957400
H           0.77860520     9.25949860    22.49582860
O          11.54877760    20.65530590     7.13302040
H          10.93528940    20.42937090     7.83217530
H          12.40614990    20.65896990     7.55861380
O          15.19671630    25.25716210    20.94595910
H          15.30677510    24.56635860    21.59934040
H          14.25190930    25.40704150    20.91268730
O           5.86914250     2.88074760     4.14085480
H           6.30409340     2.06530210     4.39004990
H           4.93516060     2.69067550     4.22906780
O           6.26575280    11.39571380     1.40916160
H           6.59505560    11.80764010     2.20797820
H           7.05234810    11.18970780     0.90412710
O           6.48196980     6.68634890    22.94048120
H           6.52151110     5.96554990    23.56906510
H           7.17543980     7.28477810    23.21835330
O           9.48073100    12.37429620    16.84167100
H          10.20982650    12.45048140    17.45717810
H           9.09865950    13.25147440    16.81320190
O          11.28877930    24.21287540     6.50567820
H          10.77588460    24.57455640     7.22842220
H          10.69279860    24.23021700     5.75685410
O           3.77571080     4.37200020    14.55899430
H           3.69827010     4.58752440    13.62959480
H           4.61499210     3.91729810    14.63029480
O          17.30922700     7.35994910    11.50848390
H          17.96306610     8.05325700    11.59819980
H          16.50584410     7.74106690    11.86282540
O           4.08012530    22.11169050     0.97574230
H           4.21069530    23.00885390     1.28279300
H           3.82027170    22.20755200     0.05949020
O          13.67907430     3.50959470    15.95250130
H          13.11106400     4.18239210    16.32792090
H          14.41595360     3.45159080    16.56067470
O           9.42719650     6.36843160     0.97117140
H           9.64188480     6.64203310     1.86295700
H           8.61053470     5.87735030     1.06135850
O          15.99959560    11.46936320    19.29714390
H          15.40746210    12.07108500    18.84599110
H          15.88201330    11.66898820    20.22588350
O           1.82496940    25.63983920     9.88738250
H           2.59494710    25.80499840    10.43152240
H           2.12406660    25.80388450     8.99303250
O          14.70762630     6.19306900     3.05485820
H          14.46457200     7.03134680     2.66186140
H          15.57584000     6.00435640     2.69873430
O           7.92731480    21.94226460     2.86476040
H           8.78993230    22.08709340     2.47598360
H           8.10654160    21.77613830     3.79023930
O          14.14024260     3.13007120    21.18921280
H          13.82493880     2.40962980    21.73490330
H          13.77872940     3.91634110    21.59826090
O          15.13269520     7.24065300     0.19140150
H          15.68010520     6.69182160    -0.37016630
H          15.71790600     7.93695830     0.48959540
O          10.36921120    24.35116200     1.23800750
H          10.78415490    24.91462330     1.89112850
H          11.10052390    23.94527630     0.77252960
O           8.71757030    10.33828450     7.97854420
H           8.51420880     9.44277290     7.70847990
H           7.87421510    10.70626830     8.24230960
O          15.21616360    19.19220540     4.23225590
H          14.71807190    19.24815370     5.04773520
H          14.99350360    19.99451260     3.76007460
O           8.67407040     8.33940890    24.12652780
H           9.11968140     8.98087980    24.67986110
H           9.01432990     7.49373150    24.41856380
O           7.66287330    12.21463580     3.45150850
H           8.31558700    12.84955020     3.15641690
H           8.17734050    11.47686000     3.77898790
O           1.13840640     1.98722680     0.75508590
H           0.45134370     2.36785650     1.30216690
H           0.91189260     2.25579600    -0.13530350
O          10.46516900     7.02221200     5.24151710
H           9.53558160     6.84095570     5.38024430
H          10.83692070     7.05512190     6.12296390
O          12.68354130     3.88324620    13.55332180
H          13.16505340     3.72501110    14.36531830
H          13.00101380     3.20998740    12.95151900
O          12.46599670    25.38867950    10.06683350
H          11.69221120    25.71597860     9.60818100
H          12.94445900    24.89063070     9.40406990
O           4.08668470     7.77078630    23.69865610
H           3.79232190     6.92869620    24.04573820
H           4.99984460     7.62254140    23.45290370
O          15.91570090    17.82311250     7.75225640
H          15.34733390    17.52965740     7.04016400
H          16.74964710    18.02205660     7.32659820
O           1.42337050     7.37884660    14.08757400
H           2.32063750     7.25763850    14.39814190
H           0.95249960     7.72592540    14.84523390
O           1.42955410     3.68169000    10.17125510
H           0.91539070     4.08073190    10.87313460
H           1.58894220     2.78649040    10.47032740
O           2.81645990     8.81848530     3.21768190
H           1.90987740     9.12350180     3.18155770
H           2.78266880     7.92572120     2.87408070
O           3.79563550    16.73694990    16.75592610
H           3.34175710    17.17418100    17.47637940
H           3.39785600    15.86728380    16.71489910
O           2.01014970    20.05035400     8.84749600
H           1.91937120    20.36611370     7.94844820
H           1.26386750    20.43013950     9.31123920
O           9.23793890    16.90700340     5.25083260
H          10.12274650    17.25491910     5.36175250
H           8.92012880    16.77168660     6.14353470
O           5.30845550     3.62269140     9.82116510
H           4.68613530     3.65583540     9.09463120
H           5.12865350     2.78737880    10.25262260
O           1.98201190     6.16221860     8.89172360
H           2.25031830     6.05517050     7.97915360
H           1.66297210     5.29766750     9.15056230
O           3.73721910    22.60719870     8.94446180
H           3.34233020    23.19070820     9.59239200
H           3.14954260    21.85232730     8.91227720
O           1.79027090    24.09318540    22.48703000
H           2.23797150    23.24761580    22.51547810
H           1.22709720    24.09217640    23.26102260
O          -0.06804140     0.30662690     3.72423840
H           0.87691520     0.40759430     3.83867070
H          -0.17629300    -0.58933550     3.40523240
O          16.15869520     3.14956120    14.00291440
H          15.74206350     3.13088800    14.86448290
H          15.51432230     2.75298210    13.41662030
O           7.16510770    14.62158200     6.43909550
H           6.58165650    15.37964730     6.40514090
H           6.69185260    13.93392850     5.97070030
O           0.79986640     6.16478250    23.42014120
H           0.03724110     5.58656070    23.40298460
H           0.95056930     6.38975290    22.50204090
O          14.16816230    16.65189930     5.93918510
H          14.35401820    16.09243010     5.18507390
H          13.26666360    16.94402310     5.80429460
O          17.76071740     6.12041760    14.85486030
H          18.39326480     6.50747300    14.24963000
H          17.78640560     5.18335680    14.66123960
O           8.10732080    21.51689720    14.69821740
H           8.97964100    21.90306280    14.61968990
H           7.90801810    21.56356810    15.63327410
O          17.27718930     5.23752640     2.18575950
H          17.49778940     5.41815280     1.27200890
H          17.30420880     4.28318260     2.25453280
O           7.17396350     0.59905840     5.21558480
H           6.88895130    -0.12650940     4.66011140
H           7.24041370     0.21846870     6.09135150
O          12.98023890     5.80130290    11.63828660
H          12.92597480     6.59719320    12.16728970
H          13.00746250     5.08985420    12.27807620
O          12.10924240    17.80242350    19.97872730
H          13.04525280    17.96030040    19.85546880
H          11.87546440    17.19101520    19.28033070
O           2.57785110    16.78158760    12.84378050
H           2.70353910    17.73049740    12.84596820
H           2.01447420    16.61286540    13.59901050
O          16.27755360    12.67549320     5.92917060
H          15.47276310    12.26215650     6.24173740
H          16.97249410    12.06711390     6.18049340
O          -0.19530160    12.68842980     1.33952810
H          -0.12449730    13.41798110     0.72391990
H           0.52314440    12.10280320     1.10055450
O           6.70460890    21.74326710    17.12235070
H           6.76418880    22.67708210    16.92068100
H           7.10189530    21.65961460    17.98918340
O           0.26105750    15.15731810    12.28981400
H          -0.37551170    15.84609510    12.09850880
H           1.10615650    15.60678200    12.29439930
O           5.99983980    24.92248150    23.72797390
H           5.94122030    25.24469380    22.82854460
H           6.73959450    24.31512830    23.71707730
O           5.70527840     9.47783760     4.62173460
H           5.10637860    10.06498720     4.16042520
H           5.13579650     8.82016470     5.02096940
O           7.20965290    24.28559300    20.55882840
H           7.19765570    24.85465050    19.78924370
H           7.90346150    24.64503290    21.11169620
O           9.58793350     8.35207750     2.84198190
H          10.26269630     8.03010940     3.43969820
H           9.06942460     8.95871260     3.37053870
O           9.50314710    10.73414040    22.77920150
H          10.25829120    10.35534380    22.32920070
H           9.03991220     9.98080830    23.14544870
O           2.15050150    25.57707980     1.02617360
H           1.88850180    26.48543360     0.87623210
H           1.33662860    25.07825280     0.95536800
O           9.16267970    23.03337100     9.62981610
H           9.75623890    22.31481740     9.41164020
H           8.29706570    22.62639050     9.66604610
O          16.76144410    25.50151630     0.64325810
H          15.87673470    25.63747020     0.30408810
O           1.25768150    23.32179640     7.61271570
H           1.84607850    24.07653240     7.63259510
H           1.71656240    22.67438700     7.07743930
O          13.25620940     0.63802530    15.77637860
H          13.08999160     1.57978310    15.81756020
H          14.00768180     0.50198580    16.35345270
O          16.12134740    10.62532140    24.25113490
H          16.64724540    10.00123500    24.75131420
H          15.80526830    11.24971010    24.90417670
O           3.27101540     0.98967760    13.97809600
H           2.42147900     0.97542460    13.53728100
H           3.90823290     0.86939160    13.27402310
O          13.09915070    26.04042240    18.60433200
H          12.67417620    25.59398840    17.87198830
H          12.67708680    25.67797090    19.38325500
O          16.12516590    15.00357630    22.49625400
H          15.25042820    15.04520320    22.88268850
H          16.19879910    14.10813330    22.16611480
O           0.38131820     7.95505430    16.54928400
H           0.48408710     8.47648330    17.34538650
H          -0.52617990     7.65188790    16.57702060
O           0.92246450    12.75492000    10.80495830
H           0.86928000    12.98199650     9.87660600
H           0.91857880    13.59792900    11.25833700
O          12.87412930    10.17926600    17.03149600
H          13.19520660    10.95853610    16.57775690
H          13.42350100     9.46751210    16.70312120
O          11.96931170    20.67767910    17.37530900
H          11.54727840    20.96496580    16.56562610
H          11.92705920    19.72201350    17.34139630
O           0.09617340    21.95502470     9.80817990
H          -0.03930220    22.59859280    10.50366400
H           0.61485070    22.41855050     9.15064810
O          14.15324880    14.25182530    24.50284390
H          13.64634610    13.46922300    24.28647420
H          14.63173770    14.01517960    25.29737660
O           8.75880150     3.38002470    13.67567630
H           9.59971050     3.13685080    14.06293680
H           8.81978890     3.08619310    12.76673320
O           2.39166380     9.49110700    23.10115430
H           2.99160080     8.80422210    23.39183810
H           2.89672780    10.30019090    23.18192860
O          17.75880430    18.26871110     3.80952550
H          17.72349360    17.33869550     4.03325560
H          16.85483550    18.57080840     3.89791490
O           0.39007490    23.43216130     2.98925110
H           0.35603780    22.81673050     2.25691320
H           0.33439170    22.87984090     3.76904200
O           2.75129340     5.18131730     6.28793530
H           2.96735500     4.51493640     6.94022750
H           2.87307190     4.74131680     5.44662570
O          17.33547590     8.72078420     1.28341870
H          18.10426140     8.19945430     1.51453690
H          17.20294190     9.29835610     2.03513430
O          11.49891760    10.06037810    13.93430710
H          12.14698890     9.36155220    13.84555050
H          11.07222840    10.10144330    13.07845690
O           7.67214490     4.34611610     5.53421500
H           7.02963830     3.91138820     4.97347550
H           8.51256180     3.97130420     5.27068420
O           7.48322300    20.91408160    22.70179560
H           6.68609240    21.32564350    22.36798480
H           7.24621960    20.60805320    23.57724380
O          11.35215470     4.46503350    24.35007100
H          10.64441010     3.90383550    24.03323360
H          10.90960980     5.25155450    24.66908650
O           8.63521100    23.27644350    12.27408790
H           8.77062800    23.26342960    11.32660290
H           8.39238550    22.37697790    12.49370380
O          16.34799580    18.81777000     1.18724540
H          16.50243760    17.87541200     1.25313660
H          15.77126600    19.01808170     1.92446230
O           3.52310680    11.78392120     3.92626090
H           3.10399510    12.51387210     3.47046760
H           2.98639940    11.02306940     3.70426750
O           9.20183280    17.43099020    23.60711860
H           8.52362730    17.01054190    24.13578800
H           9.33303450    18.28433040    24.02043150
O           0.49135600    17.03224560    15.08565330
H          -0.29439530    17.25151250    14.58490370
H           0.91524090    17.87509160    15.24741170
O          17.40640450    24.66100880     7.32722280
H          18.10362050    24.03671070     7.12628560
H          17.60881420    24.97007370     8.21025280
O           2.16842910    15.07925890    22.79562760
H           2.90854480    14.54468250    23.08318330
H           2.55936260    15.74495790    22.22972300
O          10.28720470    14.41313550    20.37535290
H          10.64648250    14.85386090    21.14536290
H           9.38230610    14.21270180    20.61455350
O          12.20743660     4.86445900     4.20467660
H          13.03918930     5.32365320     4.08823200
H          11.74514580     5.37174840     4.87189200
O          12.05096150    17.71146010    16.90398600
H          11.36610600    17.22597120    17.36388400
H          12.51524640    17.04677390    16.39519880
O          15.42038440     2.00675180     9.64524270
H          16.06862070     2.68662760     9.46142200
H          15.89970210     1.18464930     9.54212000
O          15.25367160    22.22331620    14.79908940
H          15.99067880    22.24388690    15.40952300
H          15.64799120    22.00435830    13.95481490
O          16.38036920     0.91128300     5.57586860
H          16.89390560     0.69500240     4.79757880
H          16.33538250     0.09180700     6.06848140
O           3.50779560     4.89058690    23.42867090
H           2.98616190     4.93051530    22.62708660
H           2.86303780     4.91786670    24.13561820
O          18.50043110    18.05745700    20.51848790
H          18.39197160    19.00845720    20.52667240
H          18.46966930    17.80493550    21.44126510
O          10.33772280     9.14777180    17.78130340
H          10.07967570     8.77408410    16.93868640
H          11.19802190     9.53452780    17.61840250
O          13.98654460    17.34119800    23.28744130
H          14.63053040    17.88544270    22.83432580
H          14.50395870    16.81590840    23.89784050
O           2.11487360    17.29176140     6.47853180
H           2.41191320    17.50287250     5.59341530
H           2.10391930    16.33501050     6.50567720
O          16.95770840    25.35908320    10.24347110
H          16.21095660    24.98160740    10.70834540
H          17.60157200    25.53700450    10.92904660
O           4.89020350     1.66809670    24.17687610
H           5.51955890     1.03425840    24.52095790
H           4.41285800     1.18835770    23.49995420
O          12.05232330    17.59126850     0.49401380
H          12.66769310    17.61691670    -0.23871660
H          11.43663120    18.30190280     0.31469730
O           2.30909560    18.19609070    19.06114200
H           2.51327490    19.13017080    19.01600840
H           1.37033570    18.16476060    19.24547960
O           7.70450590    10.50652600    18.12563900
H           8.22008420     9.73986430    18.37591930
H           8.15770050    10.86053470    17.36044310
O           3.98441580    23.81601330    15.62991910
H           4.85965060    23.64481930    15.97760770
H           3.77728960    24.70171170    15.92803000
O           6.78988080    24.89499470     3.20204540
H           7.08919530    23.99234200     3.09313960
H           6.18430520    25.03598020     2.47428610
O           8.96510220    12.09563260     0.93467330
H           9.38154320    12.80563350     1.42325120
H           9.10502150    12.32317920     0.01550150
O           5.17126850     9.71487140    15.81606480
H           5.46495250     9.45960240    14.94152450
H           4.71510220     8.94263940    16.15043260
O          14.13776490    16.30270390    15.90909190
H          13.70606140    15.46167470    15.75898550
H          14.84921170    16.32433700    15.26908680
O           7.48814010    20.57740400    12.35023880
H           7.54343800    20.80295750    13.27883910
H           6.75415990    19.96541400    12.29570960
O           2.94340160     2.35107400     4.93498130
H           2.36466860     2.94831850     4.46106340
H           2.86270210     1.51902210     4.46871090
O           9.55723670     8.15260600    20.31759070
H          10.06776810     8.43239210    21.07739830
H          10.00406070     8.54903890    19.56964490
O           8.45956900     6.51063920    13.74121280
H           8.35108950     5.59725380    14.00614740
H           8.09712510     6.54794360    12.85607150
O           3.21938200     0.22615300    16.52214620
H           2.40631180     0.53294490    16.92342950
H           3.22782250     0.63391310    15.65618320
O           6.31162550    20.38561250     0.70884900
H           7.05475900    20.87257770     1.06500820
H           5.54288770    20.88006780     0.99308300
O          10.60404870    25.64771270    16.85260770
H           9.98876480    25.28544620    16.21509740
H          11.03732110    26.36332320    16.38741300
O          18.22583580    10.86450000    12.53671260
H          18.57111170    11.48577590    13.17783160
H          18.54355810    11.18858910    11.69394870
O          18.46198460    14.81539820    24.10099030
H          17.78572270    14.81358240    23.42356870
H          19.28433230    14.89871500    23.61825560
O          13.90948580    25.11644360     1.88305950
H          13.99030020    25.24216650     0.93759920
H          14.70801830    24.65098570     2.13190650
O           4.54777530    21.08547780    15.24361230
H           4.26892090    21.99122810    15.10911370
H           5.37640090    21.15781020    15.71729850
O          17.42230030    11.34549520    15.73742680
H          18.00715640    11.30128480    16.49387930
H          17.79473880    12.03408810    15.18664360
O          15.11280160     3.41605640     5.58331300
H          15.98001380     3.02309270     5.68206980
H          14.88739870     3.27110170     4.66439250
O          10.19369510     6.05282590    16.98370930
H          11.13018700     5.85877900    17.02322010
H          10.14709570     6.93375160    16.61218450
O           6.40841010     4.61090140    -0.21998310
H           5.45202160     4.64335110    -0.19762180
H           6.65814020     4.30516580     0.65202240
O           8.52164080    21.47680470    19.38401600
H           9.19529340    20.80213360    19.46911240
H           8.98672100    22.29989430    19.53386690
O           1.40149750    16.35382080     2.29705520
H           1.73185980    16.56030650     1.42272280
H           0.44903910    16.37994770     2.20555590
O          12.80615330     5.20190000    22.13379670
H          12.27415370     5.33471970    21.34921460
H          12.16920760     5.05449530    22.83294300
O           1.40719230    11.33782670    17.31230350
H           1.24982510    10.81576060    18.09901430
H           2.33052230    11.19019320    17.10761070
O          16.98722270     1.60234420    21.57789420
H          16.51311490     0.79397880    21.77282910
H          16.32263370     2.18844080    21.21589470
O           9.85329630     1.14435880    19.09395030
H          10.27820870     0.68227940    18.37134170
H          10.32336900     1.97587840    19.15590860
O           3.82536050     3.23221450     1.33381180
H           2.99889970     2.75392130     1.26725770
H           4.42208100     2.76140670     0.75200650
O          10.50228400    22.54705810    15.77371220
H          10.23846150    23.45658300    15.63445280
H          11.28773690    22.44066050    15.23707960
O          18.70959470    23.19126320    14.15229800
H          18.15518380    23.96870990    14.08568380
H          19.19208910    23.16964150    13.32588200
O           1.69650470    22.71570010    16.49721910
H           2.55455850    22.96318050    16.15264700
H           1.14841470    23.48680880    16.35154150
O           9.85522080    21.92015080    21.89875600
H          10.21178250    21.49146460    21.12072940
H           8.95051670    21.61155130    21.94884490
O          15.57303240     9.69077680    17.22562220
H          15.79593940    10.15413280    18.03299140
H          15.88249300    10.26612760    16.52602390
O           5.36437890    23.20512010    11.99267770
H           6.05845260    23.29776190    12.64529610
H           5.33866210    24.05259700    11.54843140
O          14.91834450    23.25584220    22.76346210
H          14.48145770    22.40513610    22.80420300
H          15.85136130    23.04871750    22.81647680
O           5.57748510    13.49036880     4.54096700
H           4.83191870    12.93143080     4.32198910
H           6.33206460    13.04495240     4.15568070
O           3.37961510     3.90235640    17.38690760
H           2.62651040     4.46780300    17.55818560
H           3.46384840     3.89790700    16.43343160
O          13.05003260    20.02808570    12.14151380
H          12.64183900    20.10898210    11.27950100
H          12.74429230    20.79597660    12.62431720
O           3.49055550    26.05315590    22.09563450
H           2.94580630    25.27028470    22.17682840
H           3.56829860    26.19404410    21.15205570
O           2.47253300    17.42846490    24.25951580
H           2.45495960    16.48412700    24.10412220
H           3.21517060    17.74232290    23.74355700
O           3.35259840    20.56195450    18.01431850
H           4.19807530    20.25810430    17.68405340
H           2.92449210    20.95303920    17.25273510
O          13.55781650    20.81710050     8.69715120
H          14.40201660    20.38042070     8.81060030
H          13.73344520    21.73519330     8.90328410
O          18.88795090    23.92548370    24.83251760
H          18.03782080    24.34807780    24.95468140
H          18.67477230    23.02787970    24.57738300
O          18.65772820    14.71068000    16.41740990
H          18.86538510    15.55068490    16.00813670
H          18.50218770    14.92443660    17.33737950
O           7.21689220     0.73525670    18.95538710
H           8.14249800     0.97886430    18.96725270
H           6.75346850     1.56161010    18.81896590
O          15.32228570     7.83100610     7.27473450
H          15.30972100     6.87537340     7.32803060
H          14.48347570     8.05960460     6.87427040
O           9.17047210    19.30118940    10.23173900
H           9.30919270    18.35545540    10.28249360
H           8.67171760    19.51279640    11.02085110
O           1.30054010     5.42533250    17.64852520
H           0.41763460     5.05591820    17.63293650
H           1.23512470     6.22435240    17.12553410
O           8.89967060    13.13480380    11.24874500
H           8.18828770    12.99247650    10.62431910
H           9.58757690    13.55868910    10.73558040
O          15.78885270    19.67801480    12.85377880
H          14.88996320    19.61936570    13.17749210
H          15.72772500    20.23314090    12.07639120
O          17.84124180    23.05963520    22.04030230
H          18.04827880    23.77724080    21.44162750
H          18.47470280    22.37582780    21.82266620
O          11.68713760    25.72633550     3.10336020
H          12.57603360    25.37689780     3.04020210
H          11.77673240    26.65159030     2.87509160
O           6.61076830     0.29692800    14.10988810
H           6.12835310     0.03599580    13.32539940
H           6.10342600     1.02307120    14.47258950
O           2.76586990    25.57806400     7.28692720
H           3.64598970    25.79182820     7.59664730
H           2.90651920    25.15035630     6.44222830
O          16.55172160    21.30429650     8.35088540
H          16.68810650    20.60693740     7.70954320
H          17.41874310    21.45708470     8.72660060
O          15.98051740    19.16978650    22.43126490
H          16.14089390    19.81494520    21.74258420
H          16.85256580    18.94071770    22.75265120
O           9.63817410     8.32796380    15.36691470
H           9.97397710     9.10337450    14.91724210
H           9.13755990     7.86109540    14.69784740
O          17.32159230    22.16024970    16.75994300
H          17.98332410    22.55233000    16.19019320
H          17.08795740    22.85854720    17.37152100
O           7.62732600    25.69790460    10.50909810
H           6.80864810    26.11786840    10.77297400
H           7.73230930    24.97097020    11.12291720
O           2.71397330    25.87049290     3.87913700
H           2.70971080    25.48593330     3.00259300
H           3.01418950    25.16294480     4.44964410
O          16.83598140    10.90453620     9.25286670
H          17.18001940    11.76064490     8.99802020
H          16.94899370    10.35951520     8.47414020
O           9.38365460    16.50665660    10.49431990
H           9.90178300    15.77926920    10.14982030
H           9.01267810    16.17108150    11.31040570
O          11.86088560     2.55924440     2.24256800
H          11.42949390     2.73587630     1.40654560
H          11.48476030     3.19984150     2.84622100
O           5.10311600     0.49638430     8.42397120
H           6.02545930     0.28631540     8.27772900
H           4.99854370     0.46654390     9.37497520
O          14.73283100     7.05943300    21.49316790
H          14.16670700     6.29781340    21.36798290
H          14.28619290     7.58310320    22.15838620
O           5.30403040    15.82511620    24.33807750
H           4.72537140    15.43224430    24.99156000
H           5.44266890    15.13159370    23.69306760
O          18.43496320    17.39015390    23.22871590
H          19.19610210    17.58815770    23.77433010
H          17.94287490    16.74050900    23.73075290
O          12.86682610    22.28462790     0.58125110
H          13.45087910    22.79902080     1.13848970
H          13.41654300    21.57513050     0.24860140
O          10.17506980    19.72727010     0.17149350
H           9.73440170    20.38733670    -0.36362840
H          10.18165590    20.09931180     1.05340770
O          13.50300690    15.41628740    18.44386860
H          12.71206000    14.94438270    18.18321610
H          13.91479780    15.66842170    17.61737630
O           4.03137830     7.31184100    20.65848730
H           4.09745740     7.76397320    21.49958230
H           3.56984930     6.49777360    20.85977550
O          18.31576350    13.21102050     8.35132410
H          17.44960020    13.48316190     8.04812050
H          18.89272310    13.37342830     7.60501770
O           2.42765120    23.24252320    12.67854310
H           3.16163520    23.74273110    13.03532220
H           2.83674500    22.49554630    12.24162290
O           3.38610630    16.88975520    21.08176800
H           4.09034010    16.64880940    20.47991180
H           2.81271000    17.45589450    20.56511120
O          14.92140480    18.21371080    18.02335360
H          14.23087410    17.79622460    17.50846860
H          15.59150030    17.53687480    18.11873050
O           1.09359280    19.87369160    15.08073040
H           0.17597410    19.94689370    15.34312440
H           1.50090610    20.67584990    15.40764240
O           2.01371360    19.67582320     1.08125970
H           2.45762850    20.37066080     0.59507660
H           2.14662960    18.89000700     0.55110930
O          16.86275290    20.77433200    20.51254840
H          16.35195540    21.16963010    19.80610850
H          17.39083290    21.49407960    20.85798840
O           7.34215930     7.16389610    19.33504490
H           8.21647360     7.45808980    19.59049800
H           6.74654770     7.70120910    19.85732270
O           4.91737840    14.70844170    19.49112510
H           4.22913930    14.46909810    18.87042050
H           5.47928910    13.93481640    19.53574180
O           5.46786880    22.43338580    21.42844200
H           4.81433390    22.44292260    20.72913360
H           6.13180540    23.06165500    21.14437100
O          17.22031400     3.77551580     8.83336830
H          17.52235980     4.67464730     8.96206280
H          17.98778920     3.31037310     8.50041580
O           4.01131490    20.84768490    11.48492620
H           4.41690160    21.68071560    11.24452970
H           4.74090390    20.22952270    11.52745820
O          12.97516540    14.94956400     9.04472730
H          13.35862830    15.17582610     9.89207270
H          13.63947390    15.20598790     8.40506170
O          15.83565520    15.69228080    19.83487890
H          15.86031720    15.54859830    20.78091240
H          14.92911240    15.50891590    19.58832360
O           8.62819000    18.60529710     3.02982810
H           9.50947570    18.69849970     2.66805460
H           8.63501930    17.75016590     3.45986940
O           5.18719010    18.76028250    23.83405490
H           5.67217540    19.21254540    24.52433010
H           5.14210030    17.85091020    24.12942120
O          10.42603870    19.82307240    20.24590870
H           9.86954500    19.11674120    20.57399750
H          11.21245670    19.38006210    19.92728610
O           0.80160400     2.45151210    12.86510660
H           1.36509570     2.96634530    13.44273760
H           0.11872900     3.06297590    12.58938030
O          13.76497550     1.51044670     7.33637910
H          14.08490850     1.48321160     8.23811820
H          14.55107400     1.64604490     6.80732820
O           9.90665250    13.22397330     6.70274350
H           9.43684770    12.40169330     6.84192090
H           9.22806740    13.84613800     6.44070430
O          12.83746810     8.12548160     1.50239180
H          13.16113950     7.48134990     0.87265870
H          12.27373980     8.70220090     0.98679920
O          12.39750770    14.01482770     5.69995120
H          12.98618410    13.95932960     6.45268730
H          11.53094480    13.82411100     6.05901530
O          12.85906510     5.86416820    16.95275310
H          13.30320840     5.56864120    17.74750520
H          13.48745630     6.45028160    16.53105740
O           4.49129300     7.25374220    18.01439090
H           5.28989510     6.86454150    18.37074850
H           4.09118510     7.70332810    18.75871470
O          14.28128910     4.48349710     0.77595520
H          14.17450050     5.25869560     1.32722190
H          13.38805870     4.23054650     0.54274460
O           9.23121740    25.68498420    21.64568330
H           9.71773720    26.00560570    20.88625530
H           9.75587080    25.95717620    22.39859960
O           6.36386390    22.22168730     8.86003680
H           6.62735370    21.34193610     8.59013750
H           5.40712550    22.20275880     8.83714680
O          17.60385890    21.04514880     0.24803880
H          18.31204030    21.08676910     0.89067270
H          17.16124730    20.21676060     0.43269440
O           7.52368260     5.23678490    17.45045090
H           8.37629030     5.50040820    17.10433960
H           7.36089800     5.84270860    18.17335510
O           8.03872110     4.47735020    20.73761940
H           7.71314530     5.35393000    20.53306960
H           7.29436970     4.03441520    21.14502720
O           9.06127260     2.91196610    24.42187120
H           8.16969490     3.18698330    24.20812610
H           8.94713780     2.15804820    25.00050160
O          11.16770550    15.68889900    22.44029240
H          12.03027250    15.62367530    22.85011670
H          10.98327450    16.62790870    22.41850090
O          12.59745310     2.13146500    23.18528940
H          11.90861030     1.46708600    23.20342450
H          12.16908550     2.92915610    23.49580960
O           1.55719720     6.13429690    20.79005810
H           0.70207710     6.51957700    20.59885030
H           1.59234150     5.34736490    20.24624250
O           5.88863370     2.83545680    17.91882130
H           4.98486710     3.13933900    17.83459850
H           6.42007260     3.60456250    17.71319960
O           8.18628500    15.60339260     3.33146190
H           8.60703560    16.02251050     4.08215520
H           7.24969580    15.65508560     3.52214530
O           3.56318740    11.58830930     0.44163890
H           3.62894270    11.77212430    -0.49544140
H           4.43834690    11.28988460     0.68916510
O           2.15683010    10.38720320     7.11337760
H           2.37009120    10.24800490     8.03607750
H           2.21103740     9.51583860     6.72092720
O           2.13562460    19.29874990    12.68799590
H           1.92622770    19.67008400    13.54502300
H           2.74529100    19.92520900    12.29801370
O           4.11896420     7.01094010    15.26793290
H           4.46932220     7.04727130    16.15796660
H           3.91490720     6.08620830    15.12841990
O           9.35854910    24.63048550    14.62227250
H           8.82915780    25.40709500    14.44101520
H           9.28777120    24.10156440    13.82762340
O          18.31514170    18.16445160    12.68067360
H          19.22628210    18.41918950    12.53519440
H          17.82542420    18.98510360    12.62645720
O           6.21493240     3.11076280    14.96559330
H           6.26192670     3.31143620    15.90034100
H           7.11971950     3.17774490    14.66046140
O           2.75145790    14.55605410     6.62000370
H           2.11696030    13.83982470     6.59430500
H           3.28020830    14.37981320     7.39820290
O          11.66270070    12.77921580    18.68063350
H          11.26696490    13.36528590    19.32572750
H          11.73909380    11.93996620    19.13456540
O          10.60215000     9.61465070     0.55547050
H          10.29152770     9.39046760     1.43267440
H          10.50370030    10.56528280     0.50220390
O           1.17629020     8.90859790    11.93716620
H           1.50289880     8.39726540    12.67750360
H           0.62760180     9.58395000    12.33600620
O          10.14835360    25.68743320     8.73547170
H           9.58131120    24.99683760     9.07865140
H           9.54936980    26.29694180     8.30425170
O           7.87950230    15.82694150     0.66884040
H           8.05496310    15.97009940     1.59886840
H           6.96804810    16.09537120     0.55296800
O           3.21319270    23.03272060    19.60817340
H           3.55046820    23.91722680    19.46631050
H           3.28732180    22.60817530    18.75348090
O           8.86254220     2.26710560     8.27824210
H           9.76684760     2.58032320     8.25931450
H           8.40390010     2.82115240     7.64664840
O           3.32091020    22.07342910    23.15932850
H           3.45093660    21.19548990    22.80079460
H           4.06492420    22.57862280    22.83152770
O          17.07851220     9.64177040     6.83681200
H          17.87361150     9.11492060     6.91729740
H          16.37338450     9.05431180     7.10869600
O          15.00515270    12.72763440     1.67345620
H          14.49038220    12.02129840     2.06375410
H          15.80913070    12.75298310     2.19230940
O          13.43558980     8.16570760    13.29619790
H          13.72772880     7.73157500    14.09770770
H          14.23593040     8.52434250    12.91270260
O           4.00960490    19.89562990    21.55126000
H           4.36791710    19.60919760    22.39137840
H           4.46438120    19.35953900    20.90163040
O           5.62777610     3.10504630    21.94894790
H           4.94638250     3.73418350    22.18584630
H           5.75527860     2.58097200    22.73971940
