764
Conf 1. Box X: 16.268 0.000 0.000 Y: 0.000 22.359 0.000 Z: 0.000 0.000 20.968
N          10.33482460    15.28853610     8.75364300
H           9.39936160    15.63512610     8.53410150
C          11.46543500    15.69414040     7.99815990
C          12.64685730    15.20998760     8.78094200
C          12.22791000    14.43066310     9.80611520
C          10.75953670    14.52994440     9.83447650
C          13.96998500    15.49596020     8.30224900
H          14.35871030    14.60035130     7.78785940
H          14.61070060    15.80957890     9.14424230
H          13.90837670    16.21782490     7.46982050
O          11.49777510    16.27175140     6.94697050
C          12.94904900    13.66249660    10.73716070
H          12.50059890    13.46183010    11.71798900
C          14.21051500    13.28581240    10.56859210
H          14.81434540    12.82064150    11.35387800
H          14.84313960    13.49080850     9.69943810
C           9.86116890    13.91233060    10.70322610
H          10.20993140    13.10975840    11.36477180
N           7.46108390    13.14291000    10.97169210
H           7.73177000    12.19266220    11.21836850
C           8.41804030    14.12507720    10.73077870
C           7.72209310    15.40452290    10.56413840
C           6.36503360    15.14565850    10.64152910
C           6.14723010    13.71128460    10.93771360
C           8.36032770    16.71750830    10.46177200
H           8.80209160    16.92673110     9.47237970
H           9.10572910    16.73715780    11.27529050
H           7.53080940    17.41619110    10.66565700
C           4.99110890    12.99161720    11.16770360
H           4.12649870    13.66340350    11.22549150
N           5.53686000    10.55525970    11.17458060
H           6.35964010    10.53659250    10.57476040
C           4.65908380    11.61383630    11.35041710
C           3.43507740    11.12012480    11.82643890
C           3.50623820     9.74754710    11.95218470
C           4.84138820     9.37661270    11.50314140
C           2.40355060     8.78449440    12.42988200
H           1.61764560     9.36271950    12.94547460
H           2.71813130     8.06206890    13.20251940
H           1.94229670     8.32035640    11.54125980
C           5.25244430     8.02386760    11.43134880
H           4.45020960     7.31512260    11.66858200
N           7.50363640     7.98117970    10.59501270
H           7.41963820     8.82874870    10.03110980
C           6.38451860     7.34948830    11.02541540
C           6.67732620     5.90978860    10.92764090
C           7.89778280     5.76815320    10.45794300
C           8.54530810     7.08159070    10.26035690
C           5.61366610     4.89566140    11.19415190
H           4.61251640     5.17539600    10.82364650
H           5.42129370     4.63735290    12.24965860
H           5.78399800     3.95148520    10.64886000
O           9.62933920     7.34470940     9.74780940
C           8.57512190     4.50209190    10.12371440
H           8.20453550     3.59285240    10.61169720
C           9.58883380     4.23434110     9.32942680
H          10.03382110     3.23533490     9.28894140
H          10.11002540     4.90853790     8.64277740
H           2.53027320    11.69157890    12.02523710
H           5.46070720    15.75108150    10.62134460
O           7.28253560     6.27242140     4.46516470
H           7.96380810     6.75525430     4.93310880
H           6.49304820     6.80164770     4.57857130
O          14.72051720    10.69932370    20.22241020
H          14.25860020    10.16490550    20.86836810
H          14.36439420    11.57982060    20.34129330
O          12.03714370    19.12275890    11.74638270
H          12.65978150    19.84488870    11.66221710
H          11.25838660    19.42205240    11.27713490
O          16.39703370    13.19254400    13.07401180
H          15.91425040    12.38316630    13.24152280
H          15.73264980    13.88043880    13.11431790
O          13.20792960     3.90891960    15.97030350
H          12.91350270     3.00763250    15.83906080
H          12.93184090     4.12373640    16.86129380
O          13.14244170     6.04663370     4.51299290
H          13.99738120     6.44388870     4.67881730
H          12.67579360     6.12653830     5.34491110
O           5.08114430    21.62082860    17.34492300
H           5.36933990    22.52439500    17.47432140
H           5.48272750    21.35759740    16.51687050
O           3.92975880     8.94770720    20.55115510
H           3.79581280     8.01853470    20.73805050
H           3.49480010     9.08797450    19.71010400
O          12.54051020    13.89643570     4.94027810
H          12.26959900    13.53665260     5.78490590
H          13.47337250    14.08233450     5.04724260
O          11.52835560     9.05749510    20.41809650
H          12.15237240     9.20461940    21.12886240
H          10.71629050     8.80927280    20.85987470
O           0.29557760    21.46739960    12.37721160
H           1.13733260    21.38603400    11.92881490
H           0.09416640    22.40245630    12.34072690
O           8.98306080    14.03062820     0.65572970
H           8.83925150    14.95912550     0.47285400
H           9.81396870    14.00587560     1.13029420
O           2.23807310     2.53149150    14.85805230
H           2.65818190     2.27297140    14.03774360
H           2.31084610     3.48578760    14.87405490
O          -0.04492030     1.84717110    17.52586170
H          -0.21005280     2.73858950    17.83300400
H           0.38156860     1.41419150    18.26536560
O           3.57712050    20.43980220    11.84909440
H           3.23625020    20.85926250    11.05909920
H           3.76058720    19.53914260    11.58191680
O           7.94471740    10.76225760     4.82013750
H           8.26154900    10.52102470     5.69057230
H           7.98311330    11.71860790     4.80781940
O          13.16001220    12.84963700    20.58296010
H          13.52029710    13.70122430    20.33552360
H          12.28598400    12.83686540    20.19290350
O           8.80887890    20.41636660     6.33906890
H           9.28100590    20.98807720     5.73369740
H           9.42311760    19.70656780     6.52649070
O          11.86406990    20.82664490    17.94954110
H          11.13344960    20.35384560    18.34814640
H          11.84088710    20.57013890    17.02764130
O           7.21780590    15.31870080    19.29439930
H           7.52895070    14.42581560    19.14547920
H           6.53783660    15.44876380    18.63337140
O           8.28632450     0.29563070     1.56661020
H           8.22776410     0.85289690     2.34266260
H           8.99220470     0.68114580     1.04762690
O          15.92280010     0.44006270     7.03602550
H          16.11399840    -0.43654990     7.36953120
H          16.40623470     0.49338270     6.21159890
O           5.91986080    14.97775360     6.90940140
H           5.72075890    15.06908230     5.97760150
H           6.70139600    14.42565540     6.93433430
O          14.24873070     0.36952130     0.63540490
H          13.98966120    -0.30019360     0.00247780
H          15.20488360     0.38247420     0.59255140
O           0.25464020    16.04725460     6.72122720
H           1.17524210    15.78511710     6.72405770
H           0.25532590    16.92000200     6.32810740
O          14.31146050     9.58197880     1.73566420
H          15.05961990     9.42194650     2.31088470
H          13.82460780    10.28491020     2.16588900
O          13.67160320    21.69127080    11.72062680
H          13.66873650    21.83489040    12.66698650
H          14.59033390    21.53025820    11.50558950
O          14.12995430    10.55936620    17.48878670
H          14.41994290    10.53919600    18.40077970
H          14.84490970    10.15051840    17.00102230
O           5.59384820     1.39255830     2.89528160
H           6.47674940     1.37891890     3.26478310
H           5.17462870     2.14956210     3.30446700
O           4.42913530    11.40772150    18.61426930
H           4.45142600    10.45915790    18.48792650
H           4.18369440    11.75772000    17.75782780
O           8.54393290    17.37689020    20.89370160
H           7.80420780    17.92658040    21.15230940
H           8.15076450    16.67426490    20.37604520
O           1.46679750    18.54741290     0.25632890
H           1.18581640    17.71796800     0.64272610
H           0.85119590    19.19356540     0.60238280
O          13.50629330    11.89050670     2.80078240
H          12.97877690    12.44013120     3.38032650
H          13.55609990    12.38425730     1.98227010
O          14.70131400    -0.00597170     3.44068460
H          14.51793580     0.01642530     2.50148180
H          14.43062500     0.85551180     3.75818130
O          14.21070100    20.68854330    19.71931650
H          13.44767760    20.45700070    19.18977550
H          14.95792390    20.54386900    19.13883590
O           6.77137470     5.04119400    18.71010590
H           6.23552130     4.85244460    19.48047450
H           6.20009180     4.84597300    17.96730230
O           1.65728060    18.44464110     5.32920410
H           2.41255640    18.56542020     4.75370260
H           0.95235790    18.93402290     4.90514990
O          12.61216740    11.84795950    15.40104770
H          13.05803010    11.71553800    16.23765180
H          12.91067410    12.70753960    15.10398200
O          12.36308670     5.87701700     1.98461620
H          11.51045320     6.24662880     1.75519070
H          12.48179440     6.10319040     2.90710470
O           4.98968890     1.98506470     5.83523420
H           5.12312600     1.18093610     5.33343360
H           4.13145730     2.30281950     5.55469560
O           9.44830420     7.40672730     6.31506110
H          10.26935010     7.79017350     6.62341930
H           8.76655580     7.94171570     6.72155710
O           1.21165810     0.65306010    19.74102210
H           1.33182780     0.56838720    20.68686680
H           1.82004610     0.01724260    19.36441800
O           7.93418360    12.66608910    19.36528590
H           7.38759660    11.94794270    19.68425370
H           8.25389100    13.09463600    20.15924260
O           3.13102320     3.07840280    20.78981210
H           3.53379800     2.74390150    19.98849300
H           2.43896270     2.44847990    20.99101450
O           9.14471630     4.36925980    13.26872730
H           9.70570950     4.62535000    12.53665070
H           8.59778590     5.13774390    13.43160340
O           9.57593440     7.59210300     1.08717620
H           9.36651040     7.70254330     2.01463340
H           8.77582360     7.84880690     0.62874710
O          12.02457050    18.53424070    16.04747770
H          12.68852620    18.42889790    16.72887040
H          12.38226130    18.06993870    15.29069810
O          13.35042760     0.93396300    14.38693140
H          13.02703860     1.05647400    15.27947900
H          14.02244850     1.60733150    14.28112890
O           3.45173740    12.93639090    16.59478190
H           2.94268730    13.54213910    16.05611040
H           4.35833790    13.07701780    16.32177930
O           7.01806160    20.85297780     3.39233370
H           6.55067920    20.53139690     2.62137910
H           7.68856480    21.43779560     3.03928210
O          13.26956840    20.14666180     2.94178180
H          12.40593810    20.51896100     2.76354810
H          13.75940990    20.86166000     3.34806280
O           4.43245700     5.62459660     5.65915920
H           4.21018410     4.71630190     5.86367940
H           5.21648450     5.80214600     6.17878290
O          15.23598770    21.33871650    16.91665460
H          15.05860610    22.23944660    17.18767360
H          16.19034580    21.26700780    16.93368150
O           0.26137980     1.72609070    11.90432830
H          -0.24672160     2.00585480    11.14288430
H           0.07586540     2.38655210    12.57186790
O          12.11007020     3.76967740    18.42044450
H          11.30768300     3.31130530    18.17084310
H          12.32899380     3.41695330    19.28293420
O           4.50768710    11.53596400     5.11186650
H           4.65293930    11.94762520     5.96372840
H           3.62320950    11.17437360     5.16828970
O          15.39164450     6.86432890    12.87839320
H          15.23960400     7.79214000    12.69872190
H          14.99347310     6.71815200    13.73648550
O          14.11949830     4.68138410     0.14462290
H          13.50088310     5.03920650     0.78141990
H          14.86203480     5.28502370     0.16674530
O           0.41259630    18.19857030    16.00765040
H           1.28604090    18.59013750    16.00814440
H          -0.18368180    18.94325260    15.92933940
O           1.46492450    13.92329310     8.74380110
H           0.99874370    14.40705870     9.42562100
H           2.28752110    14.39978600     8.63190560
O           2.12261750    14.15136720    14.66968630
H           1.48621900    13.68157290    14.13068490
H           2.72469020    14.54692750    14.03939150
O           3.35792850    19.56294060    17.33867070
H           4.07786420    20.17137340    17.50520320
H           3.36875320    19.43287090    16.39041140
O           2.44636420     7.26660010     4.35200880
H           2.34002850     8.15656850     4.68798490
H           3.17416740     6.90502210     4.85777140
O          15.14853760    11.14318850    14.19015980
H          14.32075410    11.19782920    14.66767410
H          15.07744790    10.33698840    13.67906280
O          12.31097890    16.70191000     4.01043220
H          12.82639880    16.45415120     3.24284480
H          12.16906740    15.87953950     4.47926000
O          10.72616100    20.87105180     2.74018930
H          10.15930270    21.27461620     2.08289220
H          10.58431240    21.39154430     3.53088400
O           5.62665460    17.70142170     7.24156710
H           5.82065390    16.76508140     7.28469610
H           5.13536740    17.80695340     6.42686990
O           8.82030960     1.05064320     7.32747220
H           9.75569630     1.18385050     7.17404790
H           8.78109930     0.33282400     7.95947690
O           7.94544740    11.51423650    14.61579420
H           7.55222890    10.90420530    15.23987100
H           7.28274390    12.19441800    14.49575140
O           5.58932500     8.50137040     4.76027250
H           5.19739910     8.45922660     5.63253930
H           5.79615740     9.42753980     4.63512130
O           3.74538970    15.37402730    12.88019280
H           4.26632640    15.77029900    13.57863710
H           3.13435220    16.06228450    12.61719990
O           5.18669220    16.23326680    14.86239910
H           5.95592780    16.66021730    14.48527620
H           5.16444160    16.53772350    15.76961610
O          15.89859580    18.61971280    12.14156720
H          15.97939300    19.55695920    12.31840320
H          15.18256090    18.33015060    12.70697020
O          15.35523700     2.90712480    14.39943220
H          15.95783710     2.60730670    15.08002950
H          14.71474460     3.44394230    14.86615090
O           0.33781680    15.43665310    16.40639110
H           0.28228150    16.36689380    16.18775940
H           1.03227100    15.09875200    15.84089180
O           0.68540730    16.90951730     2.78027700
H          -0.08447020    16.34206390     2.74131230
H           0.32982700    17.79781150     2.75329950
O           8.44027140    21.77728840    17.41516880
H           8.55496410    20.99452020    17.95401190
H           7.79160400    21.52324100    16.75872040
O           8.42030620    10.68962960    11.88875290
H           9.09385400    10.00979040    11.90830800
H           8.32934570    10.96299550    12.80156710
O          15.75662610    18.26103210     9.39308260
H          15.70265870    18.23555950    10.34842110
H          16.01085280    17.37252430     9.14377590
O           8.82303910    14.70057390     4.77597380
H           8.95113180    15.58514210     5.11855550
H           7.87270830    14.60062690     4.72016290
O           2.56179590    21.47920800     9.30387780
H           3.29509330    21.15114210     8.78341770
H           1.82267060    20.92562870     9.05193040
O          10.69612790     6.41144280    14.80383780
H           9.93647100     5.86005690    14.61642170
H          10.49486060     6.81803800    15.64669320
O           4.55634880    20.84550860     7.81598620
H           5.19459060    20.19959260     8.11875920
H           5.00069380    21.30575560     7.10397290
O           7.75590610    20.98032000    20.29129980
H           7.17947530    20.39371680    20.78104780
H           7.99678280    21.65999790    20.92078210
O           7.83439450     1.94341970     4.40117260
H           7.39545110     2.40661170     5.11462550
H           8.18869020     2.63848040     3.84655830
O          10.61254410    16.54096030    16.94305610
H          10.60148430    16.59689710    17.89855580
H          11.12410260    17.30055620    16.66457180
O           6.80741310     5.74846170     7.70215750
H           6.69414710     4.90811630     7.25805900
H           7.05006980     5.51504610     8.59818550
O          11.78712270     8.87925910    17.72627450
H          11.48162840     9.01824470    18.62270550
H          12.42841530     9.57491300    17.58121490
O           0.31684170    15.03655720    19.27536200
H           0.33905850    14.95397950    18.32198910
H          -0.28095000    15.76607230    19.43871690
O          14.83227060     4.49503230     6.34615470
H          14.31546020     3.99589280     5.71370080
H          15.67139910     4.63956740     5.90888450
O          12.53295520     1.13133740    16.91916850
H          12.55633740     0.37098810    17.50016210
H          11.61645220     1.40745470    16.92280770
O          14.86005780    15.59066010    13.31743340
H          14.27804850    16.35013960    13.29120730
H          14.75186060    15.23635860    14.20003990
O           3.34965110    16.08980560     2.61169310
H           3.35226420    15.14102940     2.73836590
H           2.45760130    16.35834880     2.83161330
O           7.35339550     9.31824590    16.28928380
H           6.48018070     9.39355470    15.90450380
H           7.24665450     8.69125270    17.00462910
O          10.83932020    -0.04827100    12.98052690
H          10.48484520     0.67071650    13.50363060
H          11.71372510    -0.19768030    13.34014420
O           2.56992980    14.20327760     6.15626760
H           2.08004360    13.63439850     6.75008540
H           2.66721890    13.68717100     5.35601760
O          15.49942490    14.20372200     5.25219770
H          15.81855200    14.99269770     5.69026900
H          16.07160000    13.50525570     5.56999160
O           3.94324400     3.90776940     2.48213030
H           3.82049750     3.58155180     1.59064420
H           4.27717970     4.79750730     2.36773990
O          15.59095570     7.51999660     4.80740830
H          16.07049750     7.07755330     5.50777480
H          15.90881540     8.42252830     4.83258200
O           7.14156290    20.81432150    10.96920680
H           7.12587070    20.42697140    10.09402370
H           7.40700050    21.72251700    10.82444380
O          15.70513530     4.28694440    18.76548580
H          16.04748540     5.17794320    18.69371600
H          14.89327140     4.38170530    19.26361270
O           7.08299260     2.40920380    15.91901680
H           6.98317860     2.13328670    16.83013730
H           6.47798400     3.14483000    15.82388210
O           6.81225440    21.00861550    15.30008980
H           7.50638010    20.74173360    14.69743250
H           6.08430100    21.25897030    14.73119830
O          13.79396340    20.23098560    14.64244750
H          14.18830970    20.75872040    15.33686730
H          12.96741680    19.92397120    15.01499840
O           1.44300620    20.20021820    18.99421120
H           2.18687220    20.06967350    18.40611840
O          11.91018390     9.07325460    11.37565900
H          11.84505370     8.13013270    11.52569960
H          11.50628660     9.46724510    12.14888000
O           7.41155620     6.65489770    14.16831110
H           7.87152000     7.06926390    14.89835640
H           6.48830840     6.85528420    14.32222840
O          13.39917950    22.10792920     6.25601720
H          13.36895750    21.22548480     6.62562510
H          14.23271560    22.46672060     6.56051300
O          11.15069770    12.51322560     7.02642680
H          11.21755500    12.07870200     7.87669230
H          10.23930260    12.38554100     6.76320410
O          15.45528030     7.25135280    -0.06240690
H          15.92415520     6.95058350     0.71600590
H          14.85071560     7.91752240     0.26462730
O           5.83956910     1.80755160    -0.00312130
H           5.76378820     2.75048180     0.14306360
H           5.83643250     1.42793580     0.87557920
O          10.60958100    18.76501460     7.27432300
H          10.84453680    17.84920880     7.42375610
H          11.41009240    19.25245670     7.46877810
O          10.88353060    13.36008360    19.22163770
H          10.01335330    13.41042900    19.61722370
H          10.74773030    12.88060670    18.40439030
O           2.13062930     5.24903960    13.82925130
H           2.08728860     4.97339920    12.91362290
H           1.32258670     5.74269010    13.96927740
O           6.72869970     7.47070880     2.17946890
H           7.05491300     7.24523310     3.05066180
H           6.60933400     8.42004590     2.20670820
O           1.23198280    10.52786450    19.84183690
H           1.19351160     9.58341120    19.69096950
H           0.32588350    10.77884200    20.02135470
O           3.55810310     3.56444100     7.72262810
H           3.29715630     3.01049540     8.45834640
H           4.36125610     3.16163370     7.39259200
O           6.44112630    13.54097460     1.75459560
H           7.25646830    13.69769570     1.27826820
H           5.79930400    13.34375760     1.07239190
O           8.15113930    15.34939190    16.47539330
H           7.80721240    16.13314630    16.04681970
H           9.04075340    15.58914950    16.73488240
O           4.35576870     1.44681100     9.33403300
H           3.90327810     0.61053010     9.22395420
H           5.26303010     1.20547800     9.52076240
O          13.52017780    19.78756710     7.75747630
H          13.96590040    19.46261600     8.53976150
H          13.85409740    19.24017720     7.04677630
O           0.49208610    20.08247380     7.62089200
H           0.21673260    19.29908560     8.09703640
H           0.54684890    19.80084040     6.70770310
O          15.86929510    14.34543990     2.26579790
H          16.60519790    14.14484120     1.68749080
H          16.07779310    13.89449210     3.08397030
O          15.01446630    19.23314480     0.95531450
H          14.89552690    19.87245560     0.25291450
H          14.30801390    19.42178150     1.57303040
O          13.51730920     6.46172430    15.10524650
H          13.51450820     5.53900810    15.35984330
H          12.62039950     6.63381670    14.81859680
O           1.82750480     7.84592960    15.97661110
H           1.03032270     7.62520980    16.45829200
H           1.76566180     8.78994660    15.83087640
O          10.27419280    11.04739090     1.33032020
H          10.14501860    11.94364260     1.64060910
H          10.34486390    10.52513790     2.12937570
O          14.20820050    17.75070380    17.18462180
H          15.03144930    17.60052490    16.71992870
H          14.44300270    17.69776730    18.11106490
O           9.74996760    19.17586330    19.06254010
H           9.22603420    19.70502850    19.66396330
H           9.11037920    18.78864290    18.46486280
O           3.61176750    15.82426640     8.55941490
H           3.46576980    16.76668550     8.47718520
H           3.90870830    15.55125810     7.69135710
O           4.40580320    12.72475720    21.15275760
H           4.18941210    11.86012360    21.50177760
H           4.47821810    12.59034820    20.20781140
O           4.98114200     4.69748400    16.88628580
H           4.72007660     5.37526420    16.26283450
H           4.25291780     4.07626250    16.88359640
O           6.22713040    19.20571140     1.34670820
H           5.32954120    19.52959440     1.27143370
H           6.15170760    18.25973700     1.22149790
O          12.70742610    17.25311090    13.54626370
H          11.91637330    16.71449470    13.56526470
H          12.50855730    17.94872280    12.91951940
O          14.19167520    18.13371280     5.75652460
H          14.34929470    17.24548530     6.07658720
H          13.70306210    18.01179500     4.94250680
O          12.81989570     2.38896680    20.65492250
H          13.40589810     3.12748460    20.82052230
H          13.29947470     1.62576600    20.97704120
O          12.30880170     1.35181740    10.36726670
H          12.87715150     1.71293760     9.68696980
H          12.90392780     0.88411250    10.95319080
O           6.62827440     1.47775200    18.48979380
H           6.38908000     1.62288590    19.40519330
H           7.14742420     0.67366710    18.50248530
O          12.11390300     8.51128010     6.90640310
H          11.83800980     9.01700020     7.67083880
H          13.04147430     8.33173180     7.06004760
O           2.58235140    19.45235630    14.68084430
H           2.57820960    19.17109110    13.76591010
H           2.36683730    20.38432500    14.64589410
O           9.34025380     3.77890130    18.86414150
H           8.45241450     4.12167840    18.96650310
H           9.90825270     4.52997300    19.03590200
O          11.46097470     1.90991330     7.08806180
H          12.18927860     1.29531600     6.99820090
H          11.82950210     2.64886210     7.57218410
O           6.55527310     7.79798750    18.66457750
H           5.71578030     7.87853860    18.21181490
H           6.64706990     6.86036920    18.83391950
O           4.64712950    21.82727810    13.78880210
H           4.36983920    22.63846400    13.36298850
H           4.35739330    21.13420490    13.19556140
O           3.70997260    20.20824050     0.89365680
H           3.71715970    20.80013850     0.14143500
H           3.12305520    19.49806790     0.63401590
O          10.12361430    13.01524930    14.30733590
H           9.40184880    12.48190400    14.64024830
H          10.89828300    12.67718510    14.75659660
O           6.90292640     3.04406480     7.11588810
H           7.24720670     2.44651340     7.77969120
H           6.22897290     2.53681300     6.66343360
O          12.90534110    14.91279410    18.02425190
H          12.22896770    15.54518320    17.78169250
H          12.42187980    14.17801860    18.40187840
O          12.21039300     6.26332000     9.25704100
H          11.27513790     6.46700190     9.26370140
H          12.45758250     6.24253560    10.18153860
O          10.11143880    15.93839840    14.16567710
H          10.18093590    15.81038190    15.11172960
H          10.11246200    15.05241300    13.80337810
O           6.25620890    13.53427600     4.54048820
H           6.40229230    13.58800790     3.59602810
H           5.73567530    12.73955350     4.65750460
O           1.69891230    21.98414420    14.73720070
H           1.96530120    22.89603230    14.85435960
H           1.00151500    22.02056690    14.08257010
O          14.36629870     1.96640900     8.77838990
H          14.77171130     2.80204320     8.54690070
H          14.93077560     1.30660560     8.37557790
O          14.43358520     7.03278640     8.00424000
H          14.73358440     6.28342100     7.48976560
H          13.80811500     6.66124390     8.62631320
O          15.93578820     8.96488570     9.44322300
H          15.56085110     8.35429670     8.80853080
H          16.75108910     9.26069360     9.03823470
O          12.11470320     6.13402840    12.22791190
H          12.51539330     5.26550580    12.26459220
H          11.52112390     6.15585040    12.97852420
O           4.89854240     9.65197090    15.09750270
H           5.00157310     9.18600080    14.26775070
H           4.58381750    10.52053740    14.84695530
O          10.42082980     0.09087490     4.74579100
H           9.87132450     0.87296600     4.79687550
H          11.19298080     0.30608670     5.26895480
O           7.99269960    13.03557110     7.68440960
H           7.81654450    12.09518050     7.65495730
H           8.02285670    13.24447440     8.61804770
O           1.43426190     7.81065890    19.58288960
H           0.51047100     7.66344210    19.78579330
H           1.89717350     7.12318040    20.06176190
O           2.74131750     2.88087770     4.74707270
H           1.81424300     3.10225030     4.65898900
H           3.14952830     3.24158980     3.96000030
O           7.25987390    18.06390190     4.02275510
H           7.34344010    18.98987580     3.79511090
H           8.10926820    17.68431660     3.79764100
O          11.15643790    10.38189890     8.78447820
H          11.20767310    10.18275740     9.71933080
H          10.24997520    10.18625350     8.54724410
O          15.47463320     4.38833140    11.81739430
H          15.08035660     4.07557200    12.63161750
H          15.54542060     5.33575730    11.93402960
O           4.98916820    12.26961900     8.00733570
H           5.40036870    11.50174240     8.40421390
H           5.69163990    12.91778760     7.95592550
O          10.70451260    16.35768700     0.99986160
H          10.60445590    16.58633040     1.92395200
H           9.87126450    16.60667230     0.59994280
O           1.87386290    10.88165380     8.75065800
H           2.51192070    10.30715750     9.17382240
H           2.11433960    11.76154040     9.04083730
O           1.11427270    10.61296370    15.86335850
H           0.44679130    11.01098920    15.30454160
H           1.63081130    11.35254570    16.18341830
O          12.14557270     3.24702000    12.51691250
H          11.72591880     2.84314850    13.27652450
H          12.17332840     2.55101510    11.86037830
O           0.31992300    11.56649780     6.58489270
H           0.86901440    11.36466500     7.34251640
H          -0.57360300    11.55987640     6.92811160
O          10.07773590     6.37136650    19.53294750
H           9.90441320     6.69963740    20.41523550
H          10.85066130     6.85668950    19.24436570
O           1.94843350     4.69083880    10.94581700
H           1.06623040     4.32378290    10.88906570
H           2.08498550     5.11798380    10.10016160
O           6.29100040     4.72683620     0.86519090
H           6.91257290     4.31461240     1.46514980
H           6.43286180     5.66628550     0.98157350
O           0.38236580     6.24342820     2.65833020
H           1.30780470     6.25290390     2.90267350
H          -0.06474240     6.65574170     3.39746690
O           5.41788530     8.32827660     7.33152250
H           5.81210660     7.45605660     7.33879230
H           6.12887950     8.91463180     7.59018750
O          15.67084690    10.42193600     4.31267260
H          14.96145920    10.99022200     4.01258280
H          16.02532770    10.86736580     5.08219670
O           3.19211940    13.35648540     2.52846220
H           2.43237950    13.01353260     2.05791830
H           3.93689510    12.88223840     2.15882610
O           7.70251890    18.95660780    17.07524110
H           7.11624770    19.47842410    16.52731320
H           8.17656230    18.40057370    16.45690540
O           6.00193070    21.78762440     5.67240670
H           6.17998840    21.30120660     4.86746880
H           6.76942970    21.62999730     6.22225330
O           2.89842870     2.86342740    17.72602080
H           2.65397240     2.42397620    16.91155430
H           2.07616780     2.94795160    18.20869640
O           2.28959440     5.88165000     8.52901740
H           2.94469810     5.33308700     8.09756660
H           1.60388050     5.99793720     7.87136700
O           1.16694890    13.14736840    21.23138430
H           1.24263250    12.32360270    20.74980930
H           0.91980710    13.79109190    20.56747630
O           3.57620120    10.29599480     1.91370950
H           4.48128410    10.39970680     2.20747830
H           3.64697770     9.83416270     1.07828560
O           4.00240760     7.84023620    17.69446750
H           3.34249450     7.87006140    17.00175090
H           3.70824960     7.13869290    18.27544980
O           8.65454010    20.43757630    13.34174060
H           8.35969830    20.66251950    12.45930000
H           9.43975260    20.96864320    13.47456260
O          15.52119730     7.38829660    17.10852620
H          14.77013110     7.18074180    16.55260090
H          15.17445660     7.99466280    17.76298900
O           2.87902050     1.71236540    12.10358810
H           1.96913210     1.70394250    11.80649470
H           3.39265230     1.79310350    11.29991150
O           9.96807290     1.56597640    17.07269100
H           9.57069680     2.18171620    17.68847270
H           9.49893280     0.74455570    17.21900180
O           9.37831400    12.22566510    17.02071190
H           8.69291110    12.69492440    17.49637220
H           8.90310190    11.62576390    16.44579890
O           3.95105890     6.67274710     2.06560870
H           4.76520010     7.06539770     2.38061930
H           3.26375700     7.11232090     2.56623150
O           4.85965350    17.33506970     4.57929710
H           4.46596290    16.84220120     3.85935280
H           5.75799990    17.50051310     4.29323010
O           2.68550370    18.22224620     7.77722310
H           3.47082300    18.75731850     7.66232350
H           2.29896620    18.17334940     6.90290690
O           7.18419790    19.57131960     8.49757390
H           6.65867710    18.80236050     8.27675060
H           7.79012390    19.66639900     7.76269670
O           9.80574610     0.51516260    10.28261380
H          10.61457440     1.02576180    10.24631210
H           9.98107530    -0.16537170    10.93250850
O          11.35424140     5.70729160     6.66350700
H          11.83322530     6.29678820     7.24600170
H          10.50052170     6.12485790     6.54934640
O           6.40238710    10.48831560     2.32612490
H           7.05808690    10.72803020     2.98097350
H           6.79787210    10.73446660     1.48992340
O           3.02597400     6.02495860    -0.26981010
H           2.95528770     5.07193470    -0.21521650
H           3.45248770     6.28073600     0.54805120
O          14.22107980    11.41339680     8.06517980
H          13.28525540    11.33357140     7.88053850
H          14.37563610    10.80398560     8.78695680
O          10.57698730    13.67776010     3.13721350
H           9.79327770    13.81925680     3.66826080
H          11.30396460    13.89775850     3.71973970
O          13.19237140     2.53720210     3.17042330
H          12.68956090     3.25335810     3.55841140
H          12.94381140     2.54334000     2.24607920
O           2.18685790    10.25979610     4.60316280
H           2.62083410    10.16988090     3.75474520
H           1.39526330    10.76399710     4.41503910
O          10.71510790     3.97784160     4.67275520
H          10.32561870     3.51070520     5.41188570
H          11.10423760     4.76075650     5.06244130
O          13.78299330    16.11642270     1.69908230
H          12.99584770    15.81053450     1.24845450
H          14.30172350    15.32430360     1.83943120
O           8.21224980     4.35891630     2.87553140
H           9.13797470     4.41663270     3.11203600
H           7.76296380     4.88623710     3.53606770
O          11.42272850    17.03184130    19.52082820
H          10.91636560    17.83019070    19.37094120
H          11.31580640    16.85223200    20.45492740
O           1.36514150     5.31370070     5.74825810
H           1.92327370     5.90966700     5.24871680
H           1.92415490     4.55842110     5.93071030
O           8.72954650     6.63902900    16.87051390
H           9.19124510     6.86004110    17.67935180
H           8.22616000     5.85467340    17.08873370
O          10.56663130     2.29817510    14.43583010
H          10.20898630     3.16398360    14.23911190
H          10.22336960     2.08896180    15.30452630
O          16.08333780    20.04774280     4.63077590
H          15.34325410    19.44082070     4.61842010
H          15.70550160    20.89128680     4.38197230
O           9.93465140     1.84365200    20.88084600
H          10.89150430     1.82677580    20.86135860
H           9.69608880     2.56894420    20.30354880
O           3.00825290    15.88577750    19.03039170
H           2.05821390    15.98320580    18.96584700
H           3.15149470    14.93947700    19.04555510
O          10.09198670    17.91827960     3.26275180
H          10.25325580    18.86174390     3.25276260
H          10.92592620    17.53562160     3.53542400
O           7.02493620     1.43628810    10.19455910
H           6.78157190     1.42728730    11.12026120
H           7.95936730     1.22879530    10.19053940
O           1.08596670     8.64240550     6.91527130
H           1.36546390     9.53363990     6.70595500
H           1.57175510     8.41930390     7.70929100
O           5.34022950    16.57884600     0.93693440
H           4.93886230    16.11642840     0.20119920
H           4.78922890    16.35810280     1.68786940
O           7.26410250     2.13014340    12.84414010
H           6.92394920     1.87595300    13.70199490
H           8.09222320     2.57032510    13.03568360
O           2.10004020    17.27528380    11.73836800
H           1.82089390    16.57152370    11.15267940
H           1.29313050    17.74433520    11.95077800
O          15.19210150     9.72078800    12.04841040
H          14.29715730     9.65403180    11.71546750
H          15.72827720     9.29125500    11.38189030
O           2.92919730    20.34334950     3.54429460
H           3.10045670    20.40016370     2.60425540
H           3.75419040    20.60335160     3.95419340
O           9.39716240     8.59495830     3.60020280
H           9.92252540     8.24187850     4.31822780
H           8.66678430     9.03726100     4.03280830
O           6.00302170    13.72665310    15.71750740
H           6.77755020    14.04979230    16.17785450
H           5.79607530    14.41450410    15.08484170
O          11.27808380     9.47003360    14.71955010
H          11.55756190    10.33076570    15.03142070
H          11.13595010     8.96072580    15.51744370
O           0.47182050    15.28171830    11.18671800
H           0.93810620    14.80690960    11.87473390
H          -0.38265360    15.48034570    11.56967070
O           8.44502260    17.96478270    14.81744670
H           9.02420230    17.26260760    14.52124880
H           8.64966300    18.70246700    14.24283500
O          14.21445660    14.31742760    15.61670210
H          15.09379670    14.64369390    15.80786610
H          13.72882940    14.44621940    16.43144800
O           4.40059380     6.41835880    14.90679070
H           3.72348520     6.09879260    14.31044100
H           3.93603370     7.00350140    15.50514130
O           6.81476260    10.30326080    20.11181260
H           5.90358970    10.07146450    20.29144290
H           7.08675860     9.69237420    19.42692760
O           3.16001010     8.41965100     8.77291680
H           3.90689420     8.39765550     8.17465970
H           2.97463700     7.49910310     8.95855050
O           3.97236590    -0.02171120    19.90526770
H           4.07540270     0.15149230    18.96952440
H           4.57443480     0.58951680    20.32970240
O          10.18528370    20.03116230     9.97358040
H          10.04046150    20.94455720     9.72666550
H          10.05570030    19.54026030     9.16212840
O           4.98829750    16.92507930    17.35936740
H           4.85359810    17.77200700    17.78457830
H           4.47604470    16.30961420    17.88379860
O           0.57551540     1.14381720     1.77753960
H           0.34422550     1.91156700     2.30031940
H           0.73438420     0.45419240     2.42206120
O          16.18313410     3.06588480     3.56345630
H          16.24094200     3.94929430     3.19947840
H          15.26858140     2.81371620     3.43604300
O          14.42484000    16.90297320    19.81499290
H          13.48768710    16.88611980    19.62084770
H          14.47066210    16.99144550    20.76699450
O           1.46591440     0.38172460     5.02815200
H           2.00794390     1.06927800     4.64123340
H           1.87784540    -0.43505360     4.74633840
