1064
Conf 1. Box X: 18.149 0.000 0.000 Y: 0.000 24.777 0.000 Z: 0.000 0.000 23.771
N          10.77355380    11.93810080    13.69834230
H          10.55949500    11.44806190    12.82802100
C          11.54344370    13.16514110    13.82297420
C          11.59445950    13.51118660    15.26645470
C          10.85786530    12.55805300    15.87697320
C          10.32507320    11.55687240    14.92639830
C          12.08105180    14.81244660    15.70907970
H          12.89685540    15.17427350    15.05994990
H          12.30213450    14.81020550    16.79025650
H          11.29295540    15.55988500    15.51397510
O          12.06468200    13.66173650    12.87974740
C          10.51873020    12.56638530    17.26020430
H          11.23083110    13.00889780    17.96766280
C           9.39846990    12.15374370    17.85915370
H           9.07644460    12.29414270    18.89561650
H           8.50318150    11.80262180    17.33681490
C           9.53729530    10.41640660    15.12841510
H           9.37650390    10.10206790    16.16703800
N           8.56139090     9.89078710    12.90071680
H           8.58638290    10.85494520    12.57381340
C           8.90660100     9.55318260    14.16904540
C           8.41001130     8.22723580    14.34347820
C           7.89524460     7.76718140    13.19097610
C           7.96630860     8.82460980    12.21383860
C           8.54425140     7.46694950    15.64439390
H           8.00227550     6.50827880    15.57338240
H           8.19333550     8.12984280    16.45387270
H           9.57188320     7.12757680    15.86033920
C           7.42029860     8.89979080    10.93768410
H           6.99303390     7.97470380    10.53291610
N           7.82367750    11.21176530     9.97893620
H           8.54588790    11.55008030    10.61221890
C           7.35582780     9.90734960     9.94092850
C           6.72832390     9.81188680     8.73876380
C           6.72836880    10.99831300     8.02553940
C           7.56813050    11.82542990     8.75073720
C           6.07442900    11.31650450     6.72186900
H           5.16550680    10.71138950     6.56211760
H           6.69521620    11.13976760     5.82676410
H           5.87689730    12.40220170     6.72989610
C           7.95157530    13.12170980     8.24559500
H           7.93208600    13.13394450     7.14939740
N           8.46130370    14.41438290    10.33511830
H           8.00424000    13.76006600    10.97259330
C           8.46544550    14.20655160     8.94060610
C           9.04146770    15.43835350     8.35710330
C           9.50027850    16.22839550     9.40590950
C           9.08480070    15.60582640    10.75768660
C           9.43672370    15.66446590     6.95090200
H          10.14923000    14.87222100     6.66365810
H           9.99323460    16.60081100     6.77375560
H           8.53927900    15.62584110     6.30986450
O           9.09769540    16.00437930    11.91264250
C          10.24956700    17.45059200     9.33381750
H          10.43513200    17.91180040     8.35656070
C          10.80514720    18.13067630    10.34416100
H          11.32389070    19.08044430    10.18133640
H          10.72170350    17.74028210    11.36313060
H           6.16506240     8.93030550     8.43826200
H           7.55324510     6.74015620    13.07692720
O          16.00363540    16.05268290    15.83143620
H          16.68199160    16.70750050    15.99659730
H          15.46062180    16.06631090    16.61958690
O          14.53373810    13.11086650    11.75813200
H          13.67217250    13.51047040    11.87752440
H          15.13691620    13.70368390    12.20643420
O           1.89879780     9.69708630    22.97719380
H           2.69709660     9.39818190    23.41263390
H           1.19747230     9.49156190    23.59536360
O           3.10551810    17.41423800     7.45373340
H           2.79673740    17.35317420     6.54976560
H           2.73541140    18.23515130     7.77831790
O           3.21166870    13.21450420     1.56813110
H           2.63906070    12.55987260     1.16836990
H           4.09661770    12.93046280     1.33918060
O          13.43999670     5.07000020    13.07487110
H          14.18179040     4.74787380    12.56280610
H          13.60099030     4.74455880    13.96053500
O           3.15707090     4.05114790     5.38673160
H           3.11286230     4.97917410     5.61703870
H           3.78324200     3.67971470     6.00816630
O          16.34779360    20.31084060    20.69035910
H          16.12543300    21.21676830    20.90502930
H          17.14716530    20.37773700    20.16809270
O          13.66818710    14.38796140    20.00840000
H          13.14992330    14.28265480    20.80623820
H          13.81067660    13.49457450    19.69568820
O           6.43706660    11.41829970    19.29559520
H           6.17913530    12.27886390    18.96524430
H           6.61451290    11.56192110    20.22517400
O          10.41890240    20.50938990     3.31550050
H          10.14262010    21.42407610     3.37247610
H           9.71913050    20.02041050     3.74845770
O           8.69702530     3.82984020    13.44486710
H           8.82141400     4.54176570    12.81723590
H           9.57184600     3.46012350    13.56415180
O           8.13527010    17.44711690    20.65202140
H           7.68203120    17.75914380    21.43524930
H           8.99654770    17.17283440    20.96698380
O          12.13168050     2.52183770     9.12257290
H          12.53733920     3.09686520     8.47371390
H          11.93975260     3.09556250     9.86435220
O           4.55197240    10.83194640     3.12237050
H           4.08777520    10.15334220     2.63221840
H           5.08438780    11.28022670     2.46524760
O          14.06908990    19.10631940    19.55483250
H          14.60482690    19.56986240    20.19853020
H          14.68667130    18.53926090    19.09302140
O          13.12093830    16.96725460    13.14807700
H          12.96751690    16.11311530    12.74417110
H          13.26790900    17.55841830    12.40973000
O          14.89577390     0.82670440    15.84225560
H          14.46184920     0.06064070    16.21786880
H          15.82691190     0.60528980    15.85600760
O           9.69151120     5.73107960    11.87480930
H           9.54360200     6.45326280    11.26423070
H          10.58090020     5.43366860    11.68306640
O           7.90872910    23.94019510    15.83300500
H           8.02606770    24.54628750    15.10148910
H           7.02680680    23.58796120    15.71310330
O          13.73220540     7.21278810    20.93785670
H          13.51527790     8.04188920    20.51151850
H          14.22480680     7.46650930    21.71837040
O          14.41924570     7.57087180     3.16640620
H          14.79937550     8.44551090     3.24849610
H          14.85873220     7.18905690     2.40660330
O          12.44799230    23.03458600     7.44125800
H          13.24715810    22.61571310     7.12170890
H          12.43793390    22.84673500     8.37979030
O           6.38399550    22.93427850    19.87069510
H           6.14305830    22.93844600    20.79706760
H           6.47896530    23.85932540    19.64375310
O          16.02423290     6.33205270     1.27857270
H          16.91021730     6.02679300     1.08343760
H          15.86156940     7.02209140     0.63544150
O           5.74214980     8.38105770     4.43476200
H           6.14028880     7.93879560     3.68501470
H           5.61484620     9.28308110     4.14085720
O           3.89671590     2.83548780    10.07616900
H           2.94785670     2.87238170    10.19674300
H           4.09549810     3.58180280     9.51072120
O          14.89608860    22.18923190     6.87891340
H          15.74447150    22.46131900     7.22883700
H          15.00449180    21.25819970     6.68485160
O           7.14316940     6.49887700     2.38995910
H           6.28047660     6.20203070     2.10034700
H           7.72915600     5.77115490     2.18194440
O          10.40735530     1.86969600    16.08164980
H           9.45592310     1.95125040    16.14766310
H          10.57291510     1.74660720    15.14694600
O           5.59272770    23.41838840     1.55090450
H           5.01454690    24.11344340     1.86528750
H           5.43559270    22.68746570     2.14864370
O           0.49737150     5.91179900    12.03237720
H           1.14996410     6.05126240    12.71860220
H           0.34810910     6.78228810    11.66332240
O          10.61845110    11.21811960    10.75427440
H          10.47097970    10.81779100     9.89740750
H          11.53827100    11.48261640    10.73995210
O           7.68355370     4.49693730    18.37221150
H           8.04367260     4.06027650    17.60028270
H           6.78880310     4.72692540    18.12169270
O           1.38082390     3.39284560    14.26140120
H           1.63309840     4.28313300    14.50630470
H           0.45702060     3.33033800    14.50411890
O           4.99114320     9.00279240    22.46502690
H           5.39357090     9.81325340    22.15287970
H           4.59523870     8.61576180    21.68419460
O           4.76010230    21.57749560     9.24533840
H           4.84947870    20.81408690     8.67485330
H           4.95429710    21.24551960    10.12187290
O           4.75928780     4.13432740    -0.11939750
H           4.16712670     3.63016560     0.43863550
H           5.52424720     4.30036020     0.43151160
O          16.91965290     4.94981050    20.03306010
H          17.83765030     4.71879820    20.17498970
H          16.50503160     4.12981840    19.76485440
O          17.95244030    16.19410510    11.53073410
H          17.22718620    16.30281260    10.91557500
H          18.26104930    17.08480830    11.69698050
O          15.58121680     0.73491510    22.89163020
H          15.83754440     1.64891280    22.76860050
H          14.64868930     0.71664460    22.67647740
O           8.13460920     8.91772170    19.66571620
H           9.02277760     9.17695140    19.42038350
H           7.61262510     9.71158310    19.54932020
O           0.83476240    22.50272940    10.36701770
H           1.23857000    21.65284160    10.19133570
H           0.82739240    22.94450570     9.51789470
O          14.89974690     3.93745660     2.32033400
H          15.36793140     4.76808600     2.23614310
H          14.42611410     3.84462790     1.49372230
O           9.94536880     7.25789500     9.52898600
H          10.13976190     8.04491810     9.02002910
H          10.21878430     6.53438230     8.96506690
O          15.89290240     4.48714110    11.97590160
H          16.59715840     5.01144650    12.35716150
H          16.21977040     3.58802650    12.00724600
O          17.59885980    13.76830480    16.06093410
H          17.15380670    14.61409660    16.00806810
H          17.48534390    13.38319970    15.19200420
O          10.39519500     8.70499610     3.38096880
H          11.30375580     8.92000870     3.59196520
H           9.87630080     9.29674530     3.92577410
O           5.58954290     5.84258320    11.96279340
H           6.24244170     5.50894980    11.34745220
H           4.94358350     6.28349920    11.41092210
O           4.58985230     8.48095610    19.38977050
H           5.49966340     8.62232110    19.65148160
H           4.61439040     8.47270200    18.43292050
O          12.33659170     6.33707670     4.57232000
H          12.88634300     7.07108550     4.29802420
H          11.74067400     6.19613500     3.83662370
O          11.32167150     5.83969550    21.01642420
H          10.45283600     5.51028490    21.24630550
H          11.69310860     6.13589530    21.84740640
O           4.58408640    14.86369900    22.09962840
H           4.09902290    15.65709500    21.87276270
H           3.92220190    14.27274130    22.45866780
O          13.92358780    11.55191040    16.16738890
H          14.01796340    11.41611480    15.22458170
H          13.06548600    11.96461200    16.26521870
O           1.02814840    16.99197580     2.89354590
H           1.24395820    16.79623600     1.98176480
H           1.08596490    17.94551470     2.95397000
O          12.28972910    21.25651550     5.46065430
H          11.48183060    21.46378900     4.99100540
H          12.30413060    21.87038040     6.19495390
O          10.69464300     9.18292140    23.34011270
H          10.62781720     8.42460540    22.75983620
H          11.63534260     9.34002970    23.42155650
O          15.44742770    21.36164670    10.35357670
H          15.96294780    20.70836640     9.88061050
H          15.93745230    22.17688560    10.24637890
O           7.52037290    15.72199820    17.73457150
H           6.79515270    15.54697040    18.33428380
H           8.30280210    15.46956440    18.22479060
O          11.90877150     7.56283810     7.16474530
H          11.68124870     7.02632000     6.40539550
H          12.86354060     7.51563500     7.21393870
O          12.00688360    22.50861930    19.99506000
H          11.61046980    23.24561120    19.53037830
H          11.67234040    21.73333930    19.54422190
O          17.68601040     6.71905950    21.97027970
H          17.54428480     6.36616180    21.09186740
H          18.60035900     6.51436280    22.16598510
O           0.12739070    19.18532370    11.07919500
H           1.06133060    19.32994080    10.92729280
H          -0.28485320    19.37769510    10.23700810
O           2.66918160     0.09778250     5.22262430
H           1.91277380     0.54617730     4.84444380
H           2.72730710     0.43765490     6.11556290
O           8.54879380    23.27184680     1.86151020
H           7.62654210    23.04382510     1.97851170
H           8.71433830    23.94593050     2.52062990
O           7.08696890    17.87932970    13.20897010
H           7.89839360    18.36833190    13.07222270
H           7.24906300    17.02791400    12.80270770
O           9.31948950    22.33952140     8.82066820
H           9.74687290    23.15401460     8.55576230
H           9.85550020    22.01164050     9.54276180
O          10.23306560     4.61978200     8.45817950
H          11.07050320     4.89852190     8.08772950
H          10.47178650     4.10118530     9.22649100
O          14.86461730     1.23310320     2.26848340
H          13.91468520     1.32753980     2.33878710
H          15.19850640     2.12894490     2.31559630
O           6.26775500     1.05377040    18.95418170
H           6.63665960     1.59880480    18.25914190
H           5.66997670     1.63589700    19.42324450
O           9.12958720    21.75616070    23.20703890
H           8.95149420    22.07353400    24.09235760
H           8.49961660    21.04762080    23.07535550
O          16.63594060    19.77135090     8.62933540
H          16.11331750    19.33778000     7.95471380
H          17.53745840    19.70236590     8.31511120
O          13.70929240     2.40625620    14.08189870
H          14.53209880     2.77224780    13.75744440
H          13.97660160     1.74264940    14.71782590
O           1.95255060    22.39569280     3.33337160
H           1.71765970    23.00938800     2.63735770
H           1.21677180    21.78467180     3.37231780
O           8.80244640     4.89075140    22.63391110
H           8.44520190     5.70546200    22.28055950
H           8.38191510     4.20179610    22.11939620
O           8.26061440    12.83918090     4.43307880
H           7.38665150    13.19910620     4.58432440
H           8.64959810    13.42109870     3.78016610
O           6.28854040    15.52810000     1.58707630
H           6.56334160    14.89533900     0.92350270
H           6.10537580    14.99766250     2.36252400
O           9.65835380    11.76495170    21.66953090
H          10.54585650    12.11447330    21.58950040
H           9.76270680    10.96034620    22.17742160
O           1.70097610     3.40494390     3.12737040
H           2.01340370     3.99234440     3.81554250
H           1.39859080     2.62682200     3.59568790
O           8.13498120    13.74629310    23.50663380
H           7.77760220    13.48435020    22.65816500
H           9.06875130    13.87838080    23.34275050
O           9.95574380     2.76929140     5.89957140
H           9.74749180     2.97927520     4.98920350
H          10.64095210     2.10348370     5.84108450
O           1.25762820    10.62581830    18.17822070
H           1.74118210    11.04802800    18.88825420
H           1.67797160    10.94458680    17.37951470
O          10.96792220    14.09355260    23.55467030
H          10.97887710    13.55378340    24.34508900
H          11.89186290    14.23781390    23.35033040
O          17.05500410    10.75845810    14.85509200
H          16.90285300    10.85273740    15.79540730
H          16.18677140    10.59372900    14.48730750
O           9.77816680    10.65520570     5.69159130
H           9.07001210    10.01511860     5.76256470
H           9.39786150    11.37892530     5.19376660
O          18.04450040    13.16566660     8.79947090
H          17.21047020    13.63363930     8.75913720
H          18.53367230    13.60740380     9.49359700
O          17.37956620    21.74320410     3.78712110
H          17.43505290    22.51649480     4.34852460
H          16.44309040    21.55227470     3.73429940
O          10.27048300     5.66463330    18.33246040
H          10.73781110     5.54124500    19.15866470
H           9.35390850     5.49193050    18.54762650
O           5.51349540    22.45002560    22.80994030
H           5.59629540    22.99784280    23.59050180
H           4.61149500    22.13073160    22.83599660
O          14.41256710    23.10273930    16.80816080
H          13.63831330    22.54313280    16.86818120
H          15.14009190    22.53249740    17.05668260
O           8.17304230     0.73898350     3.64201380
H           8.25218010     1.65962060     3.89180710
H           8.00382330     0.28110350     4.46538640
O          17.70259480    17.95676420    21.20081330
H          17.25140190    18.79826740    21.13351060
H          18.62703900    18.16978840    21.07331850
O           7.07001210    13.56725500    21.12144470
H           6.25162840    14.00619980    21.35340880
H           7.57497170    14.23310090    20.65465160
O           5.38727660    15.92981430    19.37375450
H           4.47481820    16.09330750    19.61233520
H           5.86585140    16.67820170    19.73028560
O           2.72081260    12.60925770    13.34385010
H           3.00593070    13.43615910    12.95503810
H           1.82848810    12.48724460    13.01965520
O           6.51160430    17.80935480    16.09848590
H           6.65451150    16.92346380    16.43166350
H           6.69865890    17.74606900    15.16187760
O          12.49915600    15.71704290    10.04491900
H          11.69248200    16.13299370     9.74079420
H          12.45728490    14.82769010     9.69345000
O           2.47947290    15.10010150    11.44603060
H           1.56031580    15.33879760    11.56605910
H           2.86407830    15.84937380    10.99116710
O          12.59533690     1.55181540    21.61145780
H          11.64267640     1.46433100    21.57958030
H          12.87018300     1.51328310    20.69537540
O          12.31431480    18.28683470    21.29665570
H          12.96479700    18.42136380    20.60744670
H          11.99270920    19.16577340    21.49732590
O           0.76296030    22.84297750     6.15578560
H           1.18634390    22.60842900     5.32997420
H           1.21418360    22.31520650     6.81463910
O           0.36627370    10.77589700     3.43688440
H          -0.23561970    11.50466540     3.58805130
H           0.85424790    10.69435880     4.25631330
O           3.61179610    21.17464260    20.11278340
H           3.16754220    20.63106920    20.76347540
H           4.43810370    20.72123720    19.94583890
O           7.58876940     3.12200210     7.11344290
H           8.46714780     2.95745520     6.77050260
H           7.63686510     4.00414320     7.48188210
O           4.24209120    20.86505700    14.50208470
H           4.12241460    20.21837810    15.19758220
H           3.43558380    20.81681060    13.98880960
O           3.84932020     2.61557250    17.52453040
H           4.10688110     2.64929250    18.44581030
H           4.40893840     3.26289220    17.09553530
O          14.71856980    17.41392330    22.64454270
H          14.09780500    17.85472490    22.06439020
H          15.53623870    17.89898680    22.53336140
O           7.41544680     7.13717320    21.80209160
H           7.58826590     7.64572950    21.00979420
H           7.24518060     7.79481740    22.47644040
O           2.98073360    11.27581790     5.13182070
H           2.46561410    10.47470090     5.03645230
H           3.77448340    11.11224750     4.62247090
O          17.78555490    14.38288500     1.87412110
H          18.31859400    14.98042490     2.39857010
H          18.24427600    14.32565120     1.03595020
O           1.46691390     5.04376840    17.50684740
H           1.37902810     5.89529470    17.93511010
H           1.95340800     5.22876210    16.70352170
O           2.80967020    21.14694210     0.09652770
H           3.18201330    20.73750310     0.87752220
H           2.13829400    21.73993490     0.43393770
O          18.14934730    12.50595860    12.96830370
H          17.56805990    13.25533770    12.83881280
H          17.59859280    11.84542470    13.38853840
O          17.29734420     1.69495810     1.12312380
H          17.25967600     2.54707000     0.68870610
H          16.40972520     1.34577410     1.04290640
O           5.68252130    16.05193330    10.62073040
H           5.91227010    16.93627360    10.33544060
H           5.39231350    15.61056710     9.82247830
O           4.41109560     7.59596870    13.93769070
H           4.42633530     8.53831290    13.77040290
H           5.17538170     7.25752120    13.47126770
O           1.59100600     8.48382000     5.68082000
H           0.92514400     8.18077090     5.06355140
H           1.10810920     8.65406700     6.48955920
O           7.15323350    20.74656300     6.44721890
H           6.26869390    20.63654140     6.09833960
H           7.15162560    21.62300300     6.83203600
O          13.42799570     9.38887020    19.52527810
H          13.61462590    10.32584290    19.46625140
H          13.64966580     9.04550740    18.65971760
O          15.98598290    24.07378390    10.62281990
H          16.73833080    24.51933860    11.01228900
H          15.45309540    24.77942660    10.25630660
O           1.02478670     8.36741540    15.39018060
H           0.40742090     8.99595170    15.01597120
H           1.83938380     8.86060140    15.48729420
O          10.55710510    21.65077400    11.11669060
H          10.28778550    20.95260050    11.71355920
H          11.48863700    21.77514080    11.29838850
O           3.62337950    11.41123770    19.83568760
H           4.45082000    11.81925490    19.58054540
H           3.71064450    10.49916080    19.55868150
O           1.34206370     4.14794020    20.31842420
H           1.79889660     4.98623700    20.38766100
H           1.33580850     3.95530370    19.38082890
O          11.90738200     3.90135240    17.19160460
H          11.32963940     4.66271070    17.24430850
H          11.35674860     3.20750670    16.82881930
O           2.89498310    17.60824390    10.33521840
H           2.08214930    17.80405040     9.86917880
H           3.52204590    17.39539720     9.64404580
O           0.13635900    22.75142480    22.42200660
H          -0.46850890    23.32688330    21.95380210
H           0.68340190    23.34581570    22.93549920
O          14.52757740    10.78055570    13.63399310
H          14.68438720    11.38457870    12.90818410
H          14.03915790    10.05669590    13.24193950
O          17.80632590     7.14257290     4.03935100
H          17.17552950     6.95071840     4.73326730
H          17.42550470     6.74942260     3.25408600
O           5.20081380    10.31763740    13.12458230
H           5.21483710    11.22759820    13.42124180
H           6.06513260     9.97714230    13.35533810
O          -0.28801750     1.20619240    11.16387080
H          -0.29257120     1.41074980    10.22879510
H           0.61637190     1.35846940    11.43795680
O           4.85896780     3.35799070     2.96733880
H           4.11647320     3.47344260     3.56030200
H           5.61307620     3.67752700     3.46276590
O          13.57686900     3.45668840     4.89343310
H          13.60526470     2.49996420     4.90361400
H          13.83499810     3.69450430     4.00290250
O           4.57784750     2.92284820    20.03414540
H           4.89311310     3.81922770    20.14965630
H           3.95378570     2.79451990    20.74850650
O           8.35553840    24.03938480    21.56265830
H           7.48488040    24.38391490    21.76136780
H           8.48465730    23.33434680    22.19707300
O           4.27224450     7.53133820    16.83698650
H           4.34052750     8.05822750    16.04077340
H           3.38206930     7.68784380    17.15215110
O          15.07969000    10.58299450    21.83994480
H          15.41259380    11.12124630    22.55806160
H          15.56237220    10.88505840    21.07052420
O          11.19086550    24.72883030     1.58194790
H          10.51821900    24.05407710     1.67407100
H          11.72781280    24.43296620     0.84684060
O          10.40019700    20.70549770    18.25750920
H           9.93753910    19.94185830    18.60252380
H           9.73217770    21.38947680    18.21109960
O          15.57876400    20.01483350    15.34870150
H          15.68841080    20.15475650    14.40815350
H          15.51476100    20.89638140    15.71613690
O           2.88542440    10.41570950    15.07544040
H           3.77342490    10.69020940    15.30421260
H           2.73250840    10.79607390    14.21047120
O           4.70763110    15.25324250    14.69854350
H           3.77061150    15.11745260    14.83921340
H           4.75291730    15.94058040    14.03390220
O          15.26071360     5.84020470     9.62800790
H          14.82189850     6.44424490    10.22701450
H          15.68819050     5.20334670    10.20063880
O           7.31901600     4.02656600     1.31603300
H           7.38458440     3.07179500     1.29743830
H           7.89165690     4.31981710     0.60728900
O           5.82736920    12.15995310     0.82070230
H           6.73920820    12.32272720     1.06213060
H           5.86208680    11.93656730    -0.10941820
O           7.80213070     2.85762640    21.38177680
H           7.30295900     3.03694770    20.58496860
H           7.29887820     2.17926450    21.83210370
O           5.56615540    17.25933840     5.62519360
H           5.19656280    17.20250510     6.50633190
H           5.14459900    18.02637100     5.23765900
O          15.41215320    10.57288460     6.56033180
H          14.67278390    11.06051830     6.92334460
H          15.12169170     9.66082190     6.56235030
O          16.10113330     1.22001110     7.21784590
H          16.26644130     2.03787280     7.68689630
H          16.88446620     0.69228400     7.37317040
O           5.85063030    14.47188280     4.37706140
H           5.75604250    15.35918140     4.72345110
H           5.00460000    14.05730530     4.54614690
O          14.08505730     4.41242840    20.69014550
H          14.11476140     5.36754270    20.74588200
H          13.15323930     4.20556310    20.61835100
O          14.34052560    16.58065610    18.42098810
H          14.32433130    15.84195140    19.02949710
H          13.50765420    17.02933500    18.56674190
O           2.59510970    17.05181880    23.11251830
H           1.76559330    17.26205060    23.54139710
H           3.16344330    16.75440600    23.82299420
O          15.56825450    17.80709460     1.50762050
H          15.19891450    18.68940930     1.54423770
H          15.12848280    17.39400290     0.76452700
O           2.65113430     6.71375890    20.67417720
H           3.50314400     6.85459760    20.26128960
H           2.13676050     7.48335890    20.43052100
O           2.22768380     1.44552080    12.33960720
H           1.67572860     2.04919100    12.83675770
H           2.92133590     1.19684060    12.95053770
O           3.00958420    13.94435310     4.21486470
H           2.97401210    13.68933200     3.29294800
H           2.88629980    13.12541480     4.69483570
O           0.15304740    18.23517990     5.55180840
H           0.50407580    18.88378720     6.16198780
H           0.73395330    17.48007770     5.64455080
O          15.20083520     5.81769040     5.29960160
H          14.63316730     5.04950000     5.23740150
H          14.86557200     6.41781470     4.63350870
O          10.40053180    22.75158880    14.68302820
H          10.33809090    21.87465290    15.06160260
H           9.69968610    23.24625780    15.10770420
O           0.93335040    24.18420600     1.00848260
H           0.48221190    25.00364690     0.80544540
O          18.33428190    17.72339250     0.34055580
H          18.13676070    18.65582850     0.25233910
H          17.48031230    17.30797200     0.46054330
O           3.40665130     1.46567000    22.08668330
H           3.08357790     0.67767370    21.64974020
H           2.94292140     1.48251380    22.92388150
O          14.64515500     7.57170920     7.45173360
H          14.72795200     6.84096190     6.83904550
H          15.01002310     7.23919150     8.27181720
O          14.53193470    22.38927270    21.24487500
H          15.19755170    23.04805950    21.04692460
H          13.81248950    22.58811190    20.64562990
O           6.99024200    20.13657380    22.96414760
H           6.74966380    19.24225430    23.20611380
H           6.16084720    20.61437990    22.95801350
O          12.26195140     9.15213780    12.93479730
H          12.65577030     8.62741090    13.63179110
H          11.34899040     8.86592390    12.90624050
O          15.80041500    19.60924530     5.71986290
H          15.51237680    19.65904810     4.80838870
H          16.64417840    19.15900610     5.68014810
O          16.56476020    23.90352250    20.77722360
H          16.67225650    24.38079830    19.95449260
H          16.23342130    24.55791850    21.39221380
O           9.94056130    19.81148340    15.67987250
H          10.12530140    19.82813260    16.61892700
H           8.99071500    19.91410640    15.62077620
O           2.99381710    10.13321880    11.04813770
H           2.96205970    11.00464250    10.65336700
H           3.64425540    10.21005920    11.74617580
O           3.15509490    12.69948480    10.04367160
H           2.87908720    13.52994540    10.43146900
H           3.07312460    12.83687020     9.09993550
O           9.78411290    15.07022670    19.03212360
H           9.89815140    15.22825430    19.96927640
H          10.36417390    15.70395090    18.61004070
O           2.75038030     2.23766950     1.07583080
H           2.83356070     1.39304580     1.51846520
H           2.19402100     2.75804570     1.65540430
O           2.47393010    23.87225340    21.07242970
H           1.59055880    23.55858990    20.87877460
H           3.04872390    23.16490750    20.78001590
O          10.79140380     8.62143990    18.82546040
H          10.89138130     7.70804830    18.55721860
H          11.61266420     8.83181860    19.26987460
O           8.07306960    -0.07130780     6.23979230
H           8.85288620     0.31284940     6.64046860
H           7.35614250     0.17976220     6.82221080
O          12.35382650    20.37538340     1.54522620
H          11.65508750    20.36775020     2.19939590
H          12.09779930    19.70341300     0.91345270
O          16.14988140     3.41490220    22.34825900
H          17.03375240     3.78214500    22.33649640
H          15.61595150     4.06086970    21.88578990
O          14.30606270     8.93790820    16.87259670
H          14.31870080     8.59233950    15.98004250
H          14.35700510     9.88739680    16.76256560
O          10.79855920    12.29089640     2.09553550
H          10.65688040    11.44427590     2.51908400
H          10.11412050    12.85573010     2.45433570
O          10.09662340    18.27417370     0.47275610
H          10.22232250    17.80341530    -0.35114790
H           9.24157710    18.69441990     0.38044610
O          16.87508200    21.81918720    17.56819150
H          17.46570400    21.53758430    18.26683040
H          17.42944720    22.32780080    16.97639270
O           0.73941980    14.30417820    23.27398300
H           0.78061180    15.00245570    22.62057500
H           1.50758530    13.76216600    23.09404750
O          17.72863960    11.69242290    20.49784850
H          17.91079900    12.37532230    19.85232540
H          18.07019620    10.89089870    20.10145190
O           7.34996940     4.07545140    10.75620650
H           7.31141190     3.21352620    10.34168240
H           7.17071960     3.90476850    11.68085190
O          16.70298390     4.38152360     8.09657960
H          17.34674840     4.83615160     7.55333760
H          16.33264540     5.06663180     8.65309240
O           3.28783870    24.66345790    10.39896390
H           2.94903350    25.30678750    11.02151390
H           2.86641000    23.84167480    10.65056510
O          10.02185340     1.46599610    21.84723090
H           9.33659080     2.09074450    21.60988240
H           9.57442280     0.62040940    21.87920570
O          17.75350380    10.00433920     0.77970570
H          17.44026950    10.90882970     0.78329340
H          17.63339810     9.70570180     1.68116250
O          13.21638680    18.27385140    15.85752390
H          13.15048120    17.75267600    15.05735870
H          14.12424370    18.57687000    15.87189870
O          16.40703770     7.83939790    19.41218950
H          16.66363910     6.93815660    19.21686360
H          15.52830310     7.92378850    19.04214480
O          16.62592320     2.78623060    14.01373770
H          16.79502870     1.84540400    13.96393300
H          16.57461930     2.97104500    14.95152380
O           1.00809840     8.96164990    20.50903890
H           1.34308030     9.40264700    21.28977010
H           0.16853030     8.59306340    20.78381350
O          14.51360890    14.52189060     1.38602350
H          15.37735080    14.75984860     1.72300770
H          13.92331790    15.17910290     1.75461670
O           6.44050880    17.66153720    -0.04102450
H           6.94712730    17.00305370     0.43433640
H           5.52992630    17.38674350     0.06649650
O           1.45449230    17.91970060    18.67700390
H           1.67970630    18.53727340    17.98122020
H           0.68994410    17.45069310    18.34274290
O           4.46091750    22.81836700     5.68218140
H           3.60101390    23.21402740     5.53987070
H           4.92385580    23.44504740     6.23823070
O          14.23431870    20.30159570     3.38463350
H          14.03182790    20.23245620     2.45165510
H          13.64832020    20.98646740     3.70679450
O           3.64699240    21.99528500    17.56103900
H           3.68825600    21.75170520    18.48580930
H           3.81556770    21.17890360    17.09057430
O           1.43314620    18.04680060    14.64227960
H           2.25605180    17.56206510    14.70623020
H           1.64697240    18.81240650    14.10902790
O           5.49311490    20.37110710    11.66979690
H           6.44696330    20.29395100    11.64853480
H           5.27441220    20.38198850    12.60161300
O           3.54149320     6.64331290     5.65138720
H           4.20881560     7.21096850     5.26579950
H           2.75573420     7.18866210     5.68893100
O           0.27154710    24.80367280     7.79778050
H           0.36164460    24.05821610     7.20413920
H           1.16920730    25.10014720     7.94792030
O          15.51581670     3.09333850    18.60631750
H          15.29633710     2.16166160    18.60014920
H          14.86120410     3.48981520    19.18122480
O           8.96064090    18.29586410    18.08906940
H           8.35579590    18.05432890    17.38760190
H           8.53356170    17.99030690    18.88936420
O           0.24619850     8.36416050     8.10066130
H           0.57696900     7.91818520     8.88035870
H          -0.24730130     9.10973360     8.44243720
O          13.67803190    15.03843980    22.82379530
H          14.11980060    15.86457160    22.62738040
H          14.05003070    14.76105020    23.66099550
O           8.44182590    18.99613760     4.57825850
H           8.33093070    19.66996380     5.24899860
H           7.77308030    18.34247590     4.78255890
O          17.11500740    16.55106930    18.99632640
H          17.21565060    16.83045960    19.90629580
H          16.19286540    16.71254350    18.79679490
O          13.26023670     7.42791220    14.76575950
H          13.09997650     6.84151510    14.02637670
H          13.48672580     6.84413000    15.48972990
O          12.95247270    22.58164790    10.04923530
H          13.28003410    23.46326260    10.22726060
H          13.73128890    22.02601620    10.08003330
O          16.38787840    20.87054060    12.72015670
H          16.96657750    20.14027210    12.50096230
H          15.88770390    21.02845570    11.91945740
O          14.66718290    15.65775010     6.07307430
H          15.30520250    15.94647690     5.42054080
H          14.00560280    16.34943770     6.08359860
O          11.16095540     2.58640150    13.43201350
H          12.02629760     2.83560800    13.75652890
H          11.30590530     1.75770990    12.97540380
O           2.04110980    19.55589100    21.81224250
H           2.45429490    20.06932450    22.50642970
H           2.25162580    18.64752200    22.02853200
O           4.11054130     7.46907660    10.31302360
H           3.28851770     7.09849790     9.99180700
H           3.90475920     8.38587760    10.49567320
O           3.52483250    16.23440170     1.66372220
H           4.46818640    16.07881160     1.70963730
H           3.13241840    15.42587760     1.99316450
O           4.47832780    21.51031880     3.11643310
H           3.67790680    22.02974700     3.04058930
H           4.65508370    21.47860340     4.05663730
O           9.17289640     5.98089460     5.74050380
H           9.28968430     5.43477680     6.51790140
H           9.94917110     5.80830620     5.20773410
O          14.11444570     5.03497740    15.89211460
H          13.49153900     4.41318940    16.26841160
H          14.66088680     5.30329940    16.63078500
O           4.08347420    19.24862860     1.81019850
H           4.56895350    19.82564930     2.39976480
H           3.91926840    18.46046070     2.32794570
O          13.84862710     0.56816140     5.91833020
H          14.58833890     0.78265800     6.48670430
H          13.45526500    -0.20685540     6.31938980
O           0.74194790     5.41059730     6.80916400
H           0.08916260     5.85993240     6.27232070
H           1.32054210     4.98500490     6.17644600
O          13.84131050    19.22642520    11.62538720
H          14.19283960    19.86713030    11.00719830
H          13.38903050    19.75281520    12.28462030
O          12.78642560     1.83816560    18.97153090
H          12.90219210     2.49978880    18.28956220
H          12.06922340     1.28962930    18.65378760
O           2.01109190    12.70474340    16.68553540
H           2.32302170    12.19601440    15.93711950
H           1.28676580    13.22432330    16.33679390
O           9.93108460    17.16208840     3.07962660
H           9.43584820    17.80844690     3.58281040
H          10.17133810    17.61899190     2.27355620
O           2.79759480    12.28223320    22.26130870
H           2.49114490    11.46846770    22.66144180
H           2.93063900    12.06067850    21.33965680
O           0.67007710     8.61962890    11.53973580
H           0.03386000     9.06802750    10.98260020
H           1.43926790     9.18928430    11.53133680
O           1.71788000     7.70024350    17.83029750
H           1.39188550     7.97590450    16.97357750
H           1.39189790     8.36580850    18.43609620
O           7.02490040    13.58637240    15.40944100
H           6.25734140    14.05391500    15.08006380
H           7.53142310    14.25371360    15.87239070
O          17.53659820    18.33213420    16.58673860
H          18.20750050    18.21160700    15.91472910
H          17.06237220    19.11746030    16.31360050
O           0.81826190     3.86257790    23.01814460
H           1.65877600     3.67138910    23.43433570
H           0.97447760     3.71721700    22.08503340
O          12.70139500    20.78769110    16.48701100
H          11.98771380    20.71127510    17.12029840
H          12.65703960    19.97865100    15.97738650
O           9.38497830    19.55433270    12.76887700
H           8.92524910    20.39088820    12.69777770
H           9.71189020    19.53637890    13.66834260
O           9.62689400    22.59787180     5.00201370
H           8.88379190    22.82951160     5.55912540
H          10.03229900    23.43672560     4.78246020
O          14.44661430    11.99481490    18.95843700
H          14.18869400    12.17394540    18.05421260
H          15.40202710    11.94406130    18.92940520
O          12.48197940    23.66955380    23.26098440
H          13.01041030    22.96652600    23.63879970
H          12.70151810    23.66000370    22.32934950
O           0.46065790     5.53555150     1.43392810
H           0.93009550     5.38126420     0.61413830
H           0.69669320     4.79206130     1.98867480
O          17.69346050     0.39147790    14.64657880
H          17.69040870    -0.27243770    13.95705800
H          18.56686020     0.33090250    15.03353210
O           0.88604810     3.62740760    10.30362320
H           0.66366460     3.93957950    11.18073560
H           0.05470730     3.63373040     9.82921310
O           5.49200530    13.21437450    11.61110020
H           4.69583990    12.78298760    11.30084610
H           5.43118000    14.10552980    11.26704500
O           2.93339900     1.03571740     7.93114090
H           3.09138940     0.48628840     8.69886400
H           3.72456240     1.56851230     7.85100220
O           4.37517830    17.43272400    13.11281780
H           4.06402680    17.43683050    12.20761010
H           5.26186850    17.78982540    13.06291960
O           5.34688090     4.82530830    16.82796480
H           5.11684130     5.75046210    16.91402630
H           5.28137680     4.64851050    15.88951870
O          15.40117360     8.05543420    22.83134840
H          15.45393180     8.98978230    22.63024520
H          16.13272090     7.66571760    22.35261150
O           9.93462560     3.94806720     3.41700960
H           9.82157800     3.35532430     2.67396900
H          10.26030350     4.75992820     3.02836200
O          13.48041920     0.41718140    10.47366710
H          13.29147240     1.16345440     9.90480230
H          12.82471280     0.47376860    11.16870590
O          13.59617420     3.30005500    23.55998040
H          14.50822540     3.23605970    23.27660940
H          13.11117840     2.76958130    22.92783550
O           5.72309730    23.89852330     8.01962280
H           5.34434370    23.12773700     8.44231030
H           6.50338890    24.09652140     8.53747840
O           8.13472080    21.93605420    13.03816320
H           8.82635210    22.50800900    13.37094880
H           7.44317870    22.53512000    12.75687790
O           8.47998710     0.80297700    13.66912170
H           8.33695510     1.71997870    13.43485830
H           9.08196740     0.47606500    13.00055600
O           6.11341860     0.65705910    22.58353040
H           6.01013180     0.98085820    23.47835920
H           5.27479600     0.84554140    22.16232110
O          11.56124310    17.27301030    18.35860630
H          10.68411920    17.64394000    18.45503230
H          12.04063990    17.92232510    17.84401890
O          14.88255500     0.07998500    18.99608230
H          14.09986020     0.62073170    19.10197450
H          14.74548150    -0.38024100    18.16805270
O           1.08691480    22.84688570    16.69875140
H           1.29098580    23.75654600    16.48171620
H           1.86221100    22.53177830    17.16335490
O           0.88347420    19.65644840     3.09406660
H           0.13455370    20.18151090     2.81182670
H           0.74775770    19.53108790     4.03326700
O          17.42629430    20.44112780    23.45314790
H          17.11058240    21.06959150    24.10244750
H          17.54310230    20.95834730    22.65623280
O          18.08077240    13.80256650    18.80205150
H          18.05092810    13.77881530    17.84561160
H          17.93881990    14.72295670    19.02332690
O           7.36427310     4.00334600     4.64217470
H           8.23829940     4.29859210     4.38695000
H           7.46065380     3.73016600     5.55448770
O           4.64735320    19.36716840    17.14369770
H           5.05713180    18.76456070    16.52307130
H           5.22782800    19.35853000    17.90475460
O          15.81310180    14.63858130     8.61202240
H          15.28476810    14.83851150     7.83928440
H          15.65191270    15.36994360     9.20814230
O          14.11951450     8.17224690    10.74877450
H          14.52677440     9.02747060    10.61106490
H          13.29991150     8.36761190    11.20299630
O           8.10984040     8.94279480     0.26878990
H           8.08250520     8.32172300     0.99663230
H           9.04275700     9.06323910     0.09161440
O          12.79038720    11.68181710     8.76589390
H          12.08455660    11.16413590     8.37854100
H          13.09607410    12.24181750     8.05232050
O          13.41108040    12.83013730     3.81301190
H          12.74472330    13.18056200     3.22190790
H          14.23892210    13.15884880     3.46250100
O          18.19159700     1.15548170     3.79753110
H          17.37033080     1.04580720     4.27682920
H          17.92875290     1.19554360     2.87799810
O           5.69604590     5.15034530    20.72636220
H           6.56502820     5.53126570    20.59986500
H           5.53172730     5.23521850    21.66552540
O          12.58189010    15.87373070     3.14938500
H          13.09914880    16.54027750     3.60148310
H          11.67755130    16.06074910     3.40123320
O          10.30627250     0.18037830     8.03527640
H          10.86559680    -0.46213880     7.59874530
H          10.91697120     0.82019080     8.40122600
O           5.51137590    11.28826900    16.11634830
H           5.40196420    11.54231170    17.03271100
H           5.98147440    12.02134610    15.71906090
O           7.75352330    12.55612750    12.91014480
H           7.84314160    12.70230200    13.85186390
H           6.91631700    12.96104340    12.68351650
O          16.45388030    13.06053540     4.00801090
H          16.90671160    13.77676390     3.56282400
H          17.05476760    12.79270650     4.70330430
O           6.83397870    10.85170750    21.90187840
H           7.38890980    10.12789730    22.19236560
H           7.45022010    11.53380010    21.63499260
O           1.38130350    20.85629460    14.07638650
H           1.32726650    21.34565540    14.89726260
H           1.02198390    21.45159720    13.41855910
O           5.01125050     4.19215440    14.14148040
H           4.21719460     3.72955750    13.87369250
H           5.24284840     4.72895290    13.38356020
O           7.69776150    20.05317880     9.09029580
H           7.87947270    19.71584510     8.21313000
H           8.25131510    20.83025740     9.16749000
O          12.85392190    18.09285160     5.23585990
H          12.03515910    18.56736560     5.37972120
H          13.40711980    18.70958330     4.75643780
O           8.56358150     1.29614870    10.93782620
H           7.70318750     1.29397430    10.51836400
H           9.18101220     1.42188870    10.21726990
O           3.31155090     6.48774580    23.64033890
H           3.16500160     6.74780130    22.73087500
H           3.58312490     5.57144980    23.58665080
O          14.57507610    10.87926770    10.39278510
H          13.99225430    11.09429550     9.66455840
H          14.74758050    11.71948810    10.81764220
O           4.08963300     0.55307810     2.68871860
H           3.77134590     0.54253610     3.59138920
H           4.47533320     1.42246850     2.58089090
O           7.73364350     2.65676930    16.16271590
H           7.07110360     1.96758690    16.21068000
H           7.50910520     3.15038730    15.37394710
O           4.19836520    20.17073820     5.96251340
H           4.21238800    21.12370680     6.05130580
H           3.48892860    19.88688660     6.53902150
O           8.23091790     8.44139390     5.40968470
H           7.34587860     8.08270930     5.34424020
H           8.80077460     7.67239090     5.42106580
O          10.77474400     6.35786290     2.37614750
H          10.66935160     7.29420330     2.54464750
H          11.18240260     6.31455660     1.51117850
O          12.92549710    21.72228240    13.14993860
H          13.65514950    22.34029390    13.19353200
H          12.47177310    21.82802010    13.98611260
O          16.85470960    22.62576290     1.36047760
H          15.93029590    22.50743480     1.14210450
H          16.92371180    22.34195520     2.27202770
O           9.11261560    14.50522900     2.19153140
H           8.69662670    14.49307440     1.32953520
H           9.04614260    15.41653440     2.47672490
O           2.83893180    16.46176150    20.39481740
H           2.54855420    16.69428440    21.27677350
H           2.29775020    16.99798390    19.81531910
O          10.69209380     9.95056440     8.08269120
H          10.25060180    10.17631340     7.26393890
H          11.36122320     9.31570910     7.82684710
O           2.05927920     5.90861750    14.78181840
H           1.59035280     6.74186560    14.82693960
H           2.94598170     6.14712570    14.51144030
O           5.39249320     1.57035290     6.81925250
H           5.54683300     0.74634780     7.28123330
H           6.18402960     2.08507010     6.97662640
O           2.00467470     6.07971620     9.14693360
H           1.95098090     5.20407720     9.52982430
H           1.63760830     5.97995810     8.26855850
O           0.51293160    20.42190550    19.60233310
H           0.91786270    19.62957190    19.24952890
H           0.91464690    20.53285980    20.46404460
O          17.92723850    23.10254290    12.77727790
H          18.27312660    22.95844460    11.89646630
H          17.22605510    22.45726590    12.86777780
O          16.17516140    16.57978630     3.86976000
H          15.87443350    16.91664510     3.02576920
H          17.05190470    16.94884110     3.97630020
O          14.31772900    10.24826530     4.04727410
H          14.00040630    11.12939640     3.84941910
H          14.86353870    10.35943510     4.82571130
O           6.07603930    19.95355610    19.56428530
H           6.86516710    19.86762430    20.09919170
H           6.17879390    20.79474640    19.11923220
O          15.11886220    16.65495110    10.46471690
H          14.27009680    16.27735900    10.23395060
H          14.90905570    17.35803600    11.07944110
O          13.05129910     4.29857490     7.45101640
H          13.06659790     4.15013550     6.50551990
H          13.96343990     4.47648290     7.68032120
O          12.52128030    11.43072130    22.16872410
H          13.26666640    10.94335370    21.81786160
H          12.66536810    11.44028280    23.11496930
O          16.32556150    14.70918460    13.08765510
H          16.03605650    15.29644010    13.78590390
H          16.77436450    15.28076650    12.46467590
O          11.00610640     0.24554670     4.46724510
H          10.96122170     0.39486730     3.52282980
H          11.93089580     0.36283530     4.68459180
O           7.71254060     1.35392990     1.07238260
H           8.27401920     0.68378870     0.68265790
H           7.49502130     1.00994530     1.93874990
O          17.30716320     3.63129660    16.54871560
H          16.71299930     3.52842950    17.29209900
H          18.05632400     4.10872320    16.90515900
O           6.01729770     1.09930070     9.95656780
H           5.52200460     0.28486480    10.04379940
H           5.35503100     1.78872140    10.00486470
O           5.32804200    23.15796280    15.56571200
H           4.69079880    23.08878330    16.27660370
H           5.15170960    22.39793400    15.01118950
O          13.63300900    13.21666150     6.51620820
H          13.48937130    12.92077540     5.61729100
H          14.04095750    14.07751370     6.42270660
O          14.68391800    23.76270290    12.94987580
H          15.20319560    24.43349080    13.39330100
H          15.07995890    23.68828960    12.08163260
O           5.01317500    13.51879310    18.12329290
H           4.88231180    14.23039250    18.74997710
H           4.20759300    13.50355910    17.60653880
O          11.85189340     5.55426650    23.77941320
H          12.74334910     5.24040080    23.62765880
H          11.31818490     4.75988440    23.79794120
O          11.82835670     4.18067790    11.16530040
H          12.41243360     4.71213010    11.70626830
H          11.31087680     3.67780920    11.79424290
O          10.68459420     2.53463600     0.99628700
H          10.64075660     1.59282910     1.16153590
H          10.50114350     2.62248660     0.06094810
O          14.29912660    21.56121250     0.35309670
H          14.32905010    21.43265340    -0.59495860
H          13.55186840    21.03759380     0.64233850
O           4.49558540    15.18037410     8.23306560
H           3.99706910    14.39601230     8.00396160
H           4.03232100    15.89481740     7.79581400
O           4.91753860     4.74362990     7.89637990
H           5.84058090     4.87198690     7.67786460
H           4.49355030     5.56091930     7.63464360
O           2.79981680    16.76116750     4.82988830
H           2.87611560    15.80755810     4.79766700
H           2.27189040    16.98523520     4.06352090
O           2.06178740     0.98053400    16.28449440
H           1.91209580     1.73992000    15.72132780
H           2.47601390     1.34154740    17.06827930
O           5.41608190    18.58533670     9.49602510
H           5.27219960    18.91786380    10.38200280
H           6.27295060    18.93140030     9.24652960
O           8.92263030    23.11521530    18.18076520
H           8.41623780    23.40197180    17.42078590
H           8.31675910    23.19758800    18.91721920
O           7.60228590     5.73381850     8.30209450
H           8.27969550     6.37672090     8.51191810
H           7.50245760     5.22069980     9.10395240
O          16.79103280    10.41540810    18.20516590
H          17.72429470    10.57177260    18.06092070
H          16.75270460     9.54629990    18.60442920
O          11.80584140    24.54604720    12.66447350
H          11.22088620    23.94385530    13.12428380
H          12.68384740    24.20704460    12.83887100
O           4.07404230     0.56848370    14.33446410
H           4.64612100    -0.17263000    14.53373530
H           3.59234310     0.72441900    15.14679530
O          17.71442600    11.81217290     6.42375140
H          16.79884150    11.53331380     6.43699070
H          17.85799220    12.20384120     7.28527120
O          10.40705970    16.36438370    21.78689380
H          10.77632050    15.63113980    22.27906420
H          11.16967300    16.84305950    21.46205140
O          16.26864430    12.43544580     0.15143650
H          15.60401540    12.81270310     0.72778580
H          16.78676990    13.18569660    -0.13994340
O           3.04094960    12.79580310     7.31639910
H           3.36121820    12.24059580     6.60548070
H           2.09405780    12.83481790     7.18183850
O           3.85536650     8.95483020     1.15260950
H           4.51301100     8.86226560     0.46328420
H           3.62170670     8.05563830     1.38302100
O          10.95802880     0.05784070    18.12130550
H          10.20395090    -0.52886160    18.17943570
H          10.87213990     0.47401270    17.26360130
O          16.92634770    10.27547550     9.46456150
H          16.05531880    10.47349260     9.80855270
H          17.30728340    11.13173200     9.26976110
O          11.79536720    20.71600340    22.21667480
H          10.93766980    20.89340210    22.60282900
H          12.02248100    21.52389140    21.75627710
O          15.35943510    23.87004660     4.09269480
H          15.03724380    24.36284260     4.84739780
H          15.26179500    24.47151180     3.35449700
